 vasp.6.1.0 28Jan20 (build Jan 13 2021 21:44:47) complex

 executed on             LinuxIFC date 2021.01.26  22:01:19

 INCAR:
 POTCAR:    PAW_PBE Cd 06Sep2000
 POTCAR:    PAW_PBE Cu 22Jun2005
 POTCAR:    PAW_PBE Ge 05Jan2001
 POTCAR:    PAW_PBE Se 06Sep2000
|           W    W    AA    RRRRR   N    N  II  N    N   GGGG   !!!           |
|           W    W   A  A   R    R  NN   N  II  NN   N  G    G  !!!           |
|           W    W  A    A  R    R  N N  N  II  N N  N  G       !!!           |
|           W WW W  AAAAAA  RRRRR   N  N N  II  N  N N  G  GGG   !            |
|           WW  WW  A    A  R   R   N   NN  II  N   NN  G    G                |
|           W    W  A    A  R    R  N    N  II  N    N   GGGG   !!!           |
|     For optimal performance we recommend to set                             |
|       NCORE = 4 - approx SQRT(number of cores).                             |
|     This setting can greatly improve the performance of VASP for DFT.       |
|     The default, NCORE=1 might be grossly inefficient on modern             |
|     multi-core architectures or massively parallel machines. Do your        |
|     own testing!!!!                                                         |
|     Unfortunately you need to use the default for GW and RPA                |
|     calculations (for HF NCORE is supported but not extensively tested      |
|     yet).                                                                   |

 POTCAR:    PAW_PBE Cd 06Sep2000
   VRHFIN =Cd : s2 d10

   TITEL  = PAW_PBE Cd 06Sep2000
   POMASS =  112.411; ZVAL   =   12.000    mass and valenz
   ENMAX  =  274.336; ENMIN  =  205.752 eV

 POTCAR:    PAW_PBE Cu 22Jun2005
   VRHFIN =Cu: d10 p1

   TITEL  = PAW_PBE Cu 22Jun2005
   POMASS =   63.546; ZVAL   =   11.000    mass and valenz
   ENMAX  =  295.446; ENMIN  =  221.585 eV

 POTCAR:    PAW_PBE Ge 05Jan2001
   VRHFIN =Ge: s2p2

   TITEL  = PAW_PBE Ge 05Jan2001
   POMASS =   72.610; ZVAL   =    4.000    mass and valenz
   ENMAX  =  173.807; ENMIN  =  130.355 eV

 POTCAR:    PAW_PBE Se 06Sep2000
   VRHFIN =Se: s2p4

   TITEL  = PAW_PBE Se 06Sep2000
   POMASS =   78.960; ZVAL   =    6.000    mass and valenz
   ENMAX  =  211.555; ENMIN  =  158.666 eV

  PAW_PBE Cd 06Sep2000                  :
  PAW_PBE Cu 22Jun2005                  :
  PAW_PBE Ge 05Jan2001                  :
  PAW_PBE Se 06Sep2000                  :

 POSCAR: cd2 cu4 ge2 se8
  positions in direct lattice
  velocities in cartesian coordinates
 exchange correlation table for  LEXCH =        8
   RHO(1)=    0.500       N(1)  =     2000
   RHO(2)=  100.500       N(2)  =     4000

 ion  position               nearest neighbor table
   1  0.000  0.000  0.000-  14 2.69  15 2.69  12 2.69   9 2.70
   2  0.500  0.500  0.500-  10 2.69  16 2.69  13 2.69  11 2.70
   3  0.000  0.500  0.250-  10 2.44  11 2.44   9 2.44  12 2.44
   4  0.500  0.000  0.750-  15 2.44  16 2.44  14 2.44  13 2.44
   5  0.500  0.000  0.250-  11 2.44  10 2.44  12 2.44   9 2.44
   6  0.000  0.500  0.750-  14 2.44  13 2.44  15 2.44  16 2.44
   7  0.000  0.000  0.500-  10 2.46  13 2.46  11 2.46  16 2.46
   8  0.500  0.500  0.000-  15 2.46  12 2.46   9 2.46  14 2.46
   9  0.732  0.268  0.136-   3 2.44   5 2.44   8 2.46   1 2.70
  10  0.232  0.232  0.364-   5 2.44   3 2.44   7 2.46   2 2.69
  11  0.768  0.768  0.364-   5 2.44   3 2.44   7 2.46   2 2.70
  12  0.268  0.732  0.136-   5 2.44   3 2.44   8 2.46   1 2.69
  13  0.232  0.768  0.636-   6 2.44   4 2.44   7 2.46   2 2.69
  14  0.732  0.732  0.864-   6 2.44   4 2.44   8 2.46   1 2.69
  15  0.268  0.268  0.864-   4 2.44   6 2.44   8 2.46   1 2.69
  16  0.768  0.232  0.636-   4 2.44   6 2.44   7 2.46   2 2.69

  LATTYP: Found a triclinic cell.
 ALAT       =     8.2681184257
 B/A-ratio  =     0.7071375263
 C/A-ratio  =     1.9627435781
 COS(alpha) =     0.0000030143
 COS(beta)  =     0.5094458976
 COS(gamma) =     0.7071376787

  Lattice vectors:

 A1 = (  -5.8471978129,  -5.8456872975,   0.0002412929)
 A2 = (  -5.8466967864,   0.0004997962,  -0.0001842837)
 A3 = (  -0.0006938071, -11.6931334839, -11.2527767865)

Analysis of symmetry for initial positions (statically):
 Subroutine PRICEL returns:
 Original cell was already a primitive cell.

 Routine SETGRP: Setting up the symmetry group for a
 triclinic supercell.

 Subroutine GETGRP returns: Found  1 space group operations
 (whereof  1 operations were pure point group operations)
 out of a pool of  2 trial point group operations.

The static configuration has the point symmetry C_1 .

Analysis of symmetry for dynamics (positions and initial velocities):
 Subroutine PRICEL returns:
 Original cell was already a primitive cell.

 Routine SETGRP: Setting up the symmetry group for a
 triclinic supercell.

 Subroutine GETGRP returns: Found  1 space group operations
 (whereof  1 operations were pure point group operations)
 out of a pool of  2 trial point group operations.

The dynamic configuration has the point symmetry C_1 .

 Subroutine INISYM returns: Found  1 space group operations
 (whereof  1 operations are pure point group operations),
 and found     1 'primitive' translations

                                     Primitive cell

  volume of cell :     384.6589

  direct lattice vectors                    reciprocal lattice vectors
     5.846696786 -0.000499796  0.000184284     0.171036746 -0.000014658  0.000004686
     0.000501027  5.846187094 -0.000425577     0.000014622  0.171051657 -0.000011541
    -0.000308246  0.000759296 11.253627940    -0.000002800  0.000006469  0.088860232

  length of vectors
     5.846696811  5.846187131 11.253627970     0.171036746  0.171051658  0.088860233

  position of ions in fractional coordinates (direct lattice)
     0.000163052  0.000067511  0.000156119
     0.500129794  0.500034335  0.500231556
     0.000127360  0.500061681  0.250202979
     0.500226356  0.000270658  0.750222355
     0.500146500  0.000053184  0.250231993
     0.000241210  0.500283973  0.750228730
     0.000146413  0.000086031  0.500200475
     0.500162136  0.500093210  0.000228635
     0.732135806  0.268054388  0.136464328
     0.232123910  0.232065563  0.363941419
     0.768156906  0.768069173  0.363953302
     0.268144817  0.732073997  0.136469292
     0.232223592  0.768223514  0.636469662
     0.732073594  0.732098459  0.863932074
     0.268165288  0.268183874  0.863949723
     0.768293265  0.232160448  0.636487296

  ion indices of the primitive-cell ions
   primitive index   ion index
                 1           1
                 2           2
                 3           3
                 4           4
                 5           5
                 6           6
                 7           7
                 8           8
                 9           9
                10          10
                11          11
                12          12
                13          13
                14          14
                15          15
                16          16

 KPOINTS: elect

Automatic generation of k-mesh.
Space group operators:
 irot       det(A)        alpha          n_x          n_y          n_z        tau_x        tau_y        tau_z
    1     1.000000     0.000000     1.000000     0.000000     0.000000     0.000000     0.000000     0.000000
 TETIRR: Found    540 inequivalent tetrahedra from     1080

 Subroutine IBZKPT returns following result:

 Found     92 irreducible k-points:

 Following reciprocal coordinates:
            Coordinates               Weight
  0.000000  0.000000  0.000000      1.000000
  0.166667 -0.000000 -0.000000      2.000000
  0.333333 -0.000000 -0.000000      2.000000
  0.500000 -0.000000 -0.000000      1.000000
  0.000000  0.166667 -0.000000      2.000000
  0.166667  0.166667 -0.000000      2.000000
  0.166667 -0.166667  0.000000      2.000000
  0.333333  0.166667 -0.000000      2.000000
  0.333333 -0.166667  0.000000      2.000000
  0.500000  0.166667 -0.000000      2.000000
  0.000000  0.333333  0.000000      2.000000
  0.166667  0.333333  0.000000      2.000000
  0.166667 -0.333333 -0.000000      2.000000
  0.333333  0.333333  0.000000      2.000000
  0.333333 -0.333333 -0.000000      2.000000
  0.500000  0.333333  0.000000      2.000000
  0.000000  0.500000  0.000000      1.000000
  0.166667  0.500000  0.000000      2.000000
  0.333333  0.500000 -0.000000      2.000000
  0.500000  0.500000 -0.000000      1.000000
  0.000000 -0.000000  0.200000      2.000000
  0.166667  0.000000  0.200000      2.000000
  0.166667 -0.000000 -0.200000      2.000000
  0.333333 -0.000000  0.200000      2.000000
  0.333333 -0.000000 -0.200000      2.000000
  0.500000 -0.000000  0.200000      2.000000
 -0.000000  0.166667  0.200000      2.000000
  0.166667  0.166667  0.200000      2.000000
  0.166667 -0.166667 -0.200000      2.000000
  0.333333  0.166667  0.200000      2.000000
  0.333333 -0.166667 -0.200000      2.000000
  0.500000  0.166667  0.200000      2.000000
 -0.000000  0.333333  0.200000      2.000000
  0.166667  0.333333  0.200000      2.000000
  0.166667 -0.333333 -0.200000      2.000000
  0.333333  0.333333  0.200000      2.000000
  0.333333 -0.333333 -0.200000      2.000000
  0.500000  0.333333  0.200000      2.000000
 -0.000000  0.500000  0.200000      2.000000
  0.166667  0.500000  0.200000      2.000000
  0.166667  0.500000 -0.200000      2.000000
  0.333333  0.500000  0.200000      2.000000
  0.333333  0.500000 -0.200000      2.000000
  0.500000  0.500000  0.200000      2.000000
 -0.000000 -0.333333  0.200000      2.000000
  0.166667 -0.333333  0.200000      2.000000
  0.166667  0.333333 -0.200000      2.000000
  0.333333 -0.333333  0.200000      2.000000
  0.333333  0.333333 -0.200000      2.000000
  0.500000 -0.333333  0.200000      2.000000
 -0.000000 -0.166667  0.200000      2.000000
  0.166667 -0.166667  0.200000      2.000000
  0.166667  0.166667 -0.200000      2.000000
  0.333333 -0.166667  0.200000      2.000000
  0.333333  0.166667 -0.200000      2.000000
  0.500000 -0.166667  0.200000      2.000000
  0.000000 -0.000000  0.400000      2.000000
  0.166667 -0.000000  0.400000      2.000000
  0.166667 -0.000000 -0.400000      2.000000
  0.333333 -0.000000  0.400000      2.000000
[...]
  0.333333  0.500000  0.400000      2.000000
  0.333333  0.500000 -0.400000      2.000000
  0.500000  0.500000  0.400000      2.000000
 -0.000000 -0.333333  0.400000      2.000000
  0.166667 -0.333333  0.400000      2.000000
  0.166667  0.333333 -0.400000      2.000000
  0.333333 -0.333333  0.400000      2.000000
  0.333333  0.333333 -0.400000      2.000000
  0.500000 -0.333333  0.400000      2.000000
 -0.000000 -0.166667  0.400000      2.000000
  0.166667 -0.166667  0.400000      2.000000
  0.166667  0.166667 -0.400000      2.000000
  0.333333 -0.166667  0.400000      2.000000
  0.333333  0.166667 -0.400000      2.000000
  0.500000 -0.166667  0.400000      2.000000

 Following cartesian coordinates:
            Coordinates               Weight
  0.000000  0.000000  0.000000      1.000000
  0.028506 -0.000002  0.000001      2.000000
  0.057012 -0.000005  0.000002      2.000000
  0.085518 -0.000007  0.000002      1.000000
  0.000002  0.028509 -0.000002      2.000000
[...]
    0.797517    8.779327    8.962088   10.168133   -0.016856    0.022204    0.021341
    0.815642    8.811707    8.999914   10.217872   -0.017110    0.022760    0.021867
    0.833768    8.844816    9.038129   10.267455   -0.017382    0.023298    0.022377
    0.851893    8.878610    9.076599   10.316634   -0.017675    0.023811    0.022867
    0.870018    8.913049    9.115196   10.365162   -0.017992    0.024294    0.023333
    0.888144    8.948095    9.153792   10.412790   -0.018335    0.024741    0.023768
    0.906269    8.983713    9.192258   10.459268   -0.018707    0.025145    0.024167
    0.924395    9.019874    9.230470   10.504343   -0.019111    0.025502    0.024526
    0.942520    9.056547    9.268302   10.547757   -0.019552    0.025805    0.024839
    0.960645    9.093708    9.305629   10.589247   -0.020032    0.026047    0.025101
    0.978771    9.131334    9.342325   10.628544   -0.020556    0.026222    0.025306
    0.996896    9.169406    9.378264   10.665369   -0.021127    0.026323    0.025448
    1.015021    9.207908    9.413317   10.699438   -0.021751    0.026345    0.025522
    1.033147    9.246827    9.447355   10.730454   -0.022431    0.026279    0.025521
    1.051272    9.286153    9.480247   10.758113   -0.023172    0.026118    0.025440
    1.069398    9.325878    9.511860   10.782103   -0.023980    0.025856    0.025272
[...]
   54.104269    0.882587    0.882646    0.882567   -0.000087    0.000012    0.000016
   54.122394    0.882675    0.882734    0.882655   -0.000087    0.000012    0.000016
   54.140520    0.882762    0.882821    0.882742   -0.000087    0.000012    0.000016
   54.158645    0.882849    0.882908    0.882830   -0.000087    0.000012    0.000016
   54.176771    0.882936    0.882995    0.882917   -0.000086    0.000012    0.000016
   54.194896    0.883024    0.883082    0.883004   -0.000086    0.000012    0.000016
   54.213021    0.883110    0.883169    0.883091   -0.000086    0.000012    0.000016
   54.231147    0.883197    0.883256    0.883178   -0.000086    0.000012    0.000016
   54.249272    0.883284    0.883343    0.883265   -0.000086    0.000012    0.000016
   54.267398    0.883371    0.883429    0.883352   -0.000086    0.000012    0.000016
   54.285523    0.883457    0.883516    0.883439   -0.000086    0.000012    0.000016
   54.303648    0.883544    0.883602    0.883525   -0.000086    0.000012    0.000016
   54.321774    0.883630    0.883689    0.883612   -0.000086    0.000012    0.000016
   54.339899    0.883716    0.883775    0.883698   -0.000086    0.000012    0.000016
   54.358024    0.883803    0.883861    0.883784   -0.000086    0.000012    0.000016

  frequency dependent IMAGINARY DIELECTRIC FUNCTION (independent particle, no local field effects) current-current
     E(ev)      X         Y         Z        XY        YZ        ZX
    0.000000   74.555542   75.212434   84.805968   -0.654140    0.425750    0.428942
    0.018125   74.555542   75.212434   84.805968   -0.654140    0.425750    0.428942
    0.036251   37.284931   37.613960   42.413217   -0.327371    0.213158    0.214752
    0.054376   24.864586   25.084588   28.286865   -0.218583    0.142421    0.143481
    0.072502   18.656819   18.822506   21.227132   -0.164291    0.107149    0.107941
    0.090627   14.934094   15.067354   16.994068   -0.131798    0.086063    0.086694
    0.108752   12.453905   12.565685   14.174363   -0.110207    0.072073    0.072596
    0.126878   10.683750   10.780308   12.162316   -0.094846    0.062138    0.062584
    0.145003    9.357382    9.442633   10.655082   -0.083381    0.054740    0.055126
    0.163128    8.326886    8.403444    9.484418   -0.074514    0.049034    0.049374
    0.181254    7.503518    7.573217    8.549382   -0.067468    0.044514    0.044817
    0.199379    6.830805    6.894982    7.785742   -0.061748    0.040859    0.041131
    0.217505    6.271102    6.330764    7.150681   -0.057023    0.037854    0.038100
    0.235630    5.798346    5.854274    6.614560   -0.053067    0.035352    0.035575
    0.253755    5.393926    5.446737    6.156213   -0.049716    0.033246    0.033450
    0.271881    5.044196    5.094388    5.760122   -0.046852    0.031459    0.031646
    0.290006    4.738920    4.786906    5.414652   -0.044385    0.029935    0.030105
    0.308132    4.470278    4.516401    5.110912   -0.042248    0.028629    0.028785
    0.326257    4.232187    4.276741    4.841992   -0.040388    0.027507    0.027650
    0.344382    4.019848    4.063087    4.602439   -0.038764    0.026544    0.026675
    0.362508    3.829424    3.871573    4.387901   -0.037345    0.025719    0.025838
    0.380633    3.657814    3.699073    4.194858   -0.036104    0.025015    0.025123
    0.398758    3.502483    3.543033    4.020438   -0.035020    0.024420    0.024518
    0.416884    3.361339    3.401351    3.862278   -0.034077    0.023925    0.024012
    0.435009    3.232647    3.272279    3.718417   -0.033262    0.023520    0.023598
    0.453135    3.114951    3.154356    3.587218   -0.032565    0.023202    0.023270
    0.471260    3.007027    3.046355    3.467310   -0.031978    0.022966    0.023023
    0.489385    2.907836    2.947238    3.357537   -0.031495    0.022809    0.022856
    0.507511    2.816498    2.856128    3.256929   -0.031113    0.022732    0.022769
    0.525636    2.732262    2.772280    3.164666   -0.030830    0.022735    0.022761
    0.543761    2.654487    2.695064    3.080064   -0.030646    0.022820    0.022835
    0.561887    2.582628    2.623950    3.002554   -0.030564    0.022994    0.022996
    0.580012    2.516222    2.558492    2.931673   -0.030588    0.023261    0.023251
    0.598138    2.454879    2.498325    2.867045   -0.030723    0.023630    0.023606
    0.616263    2.398272    2.443148    2.808380   -0.030980    0.024112    0.024072
    0.634388    2.346127    2.392718    2.755449   -0.031365    0.024717    0.024661
    0.652514    2.298212    2.346836    2.708064   -0.031888    0.025459    0.025383
    0.670639    2.254328    2.305327    2.666055   -0.032554    0.026346    0.026250
    0.688765    2.214289    2.268025    2.629241   -0.033367    0.027387    0.027267
    0.706890    2.177911    2.234753    2.597411   -0.034326    0.028583    0.028439
    0.725015    2.145007    2.205322    2.570323   -0.035424    0.029934    0.029763
    0.743141    2.115385    2.179523    2.547703   -0.036653    0.031433    0.031232
    0.761266    2.088847    2.157135    2.529262   -0.038004    0.033069    0.032838
    0.779391    2.065198    2.137934    2.514702   -0.039465    0.034833    0.034569
    0.797517    2.044246    2.121695    2.503728   -0.041024    0.036710    0.036413
    0.815642    2.025809    2.108205    2.496056   -0.042671    0.038687    0.038356
    0.833768    2.009716    2.097257    2.491417   -0.044394    0.040751    0.040385
    0.851893    1.995808    2.088662    2.489560   -0.046183    0.042890    0.042487
    0.870018    1.983939    2.082242    2.490251   -0.048029    0.045090    0.044651
    0.888144    1.973977    2.077836    2.493278   -0.049923    0.047340    0.046864
    0.906269    1.965805    2.075298    2.498447   -0.051857    0.049628    0.049117
    0.924395    1.959316    2.074499    2.505584   -0.053826    0.051946    0.051398
    0.942520    1.954419    2.075321    2.514533   -0.055823    0.054283    0.053700
    0.960645    1.951035    2.077664    2.525153   -0.057843    0.056631    0.056011
    0.978771    1.949098    2.081442    2.537324   -0.059881    0.058980    0.058326
    0.996896    1.948556    2.086581    2.550939   -0.061936    0.061323    0.060635
    1.015021    1.949368    2.093024    2.565908   -0.064004    0.063652    0.062932
    1.033147    1.951511    2.100727    2.582158   -0.066085    0.065960    0.065209
    1.051272    1.954975    2.109665    2.599629   -0.068179    0.068240    0.067458
    1.069398    1.959765    2.119827    2.618280   -0.070287    0.070483    0.069673
[...]
   54.104269    0.000049    0.000049    0.000049   -0.000000    0.000000   -0.000000
   54.122394    0.000049    0.000049    0.000049   -0.000000    0.000000   -0.000000
   54.140520    0.000049    0.000049    0.000049   -0.000000    0.000000   -0.000000
   54.158645    0.000049    0.000049    0.000049   -0.000000    0.000000   -0.000000
   54.176771    0.000049    0.000049    0.000049   -0.000000    0.000000   -0.000000
   54.194896    0.000048    0.000048    0.000049   -0.000000    0.000000   -0.000000
   54.213021    0.000048    0.000048    0.000049   -0.000000    0.000000   -0.000000
   54.231147    0.000048    0.000048    0.000049   -0.000000    0.000000   -0.000000
   54.249272    0.000048    0.000048    0.000049   -0.000000    0.000000   -0.000000
   54.267398    0.000048    0.000048    0.000048   -0.000000    0.000000   -0.000000
   54.285523    0.000048    0.000048    0.000048   -0.000000    0.000000   -0.000000
   54.303648    0.000048    0.000048    0.000048   -0.000000    0.000000   -0.000000
   54.321774    0.000048    0.000048    0.000048   -0.000000    0.000000   -0.000000
   54.339899    0.000048    0.000048    0.000048   -0.000000    0.000000   -0.000000
   54.358024    0.000047    0.000047    0.000048   -0.000000    0.000000   -0.000000

  frequency dependent      REAL DIELECTRIC FUNCTION (independent particle, no local field effects) current-current
     E(ev)        X           Y           Z          XY          YZ          ZX
    0.000000    7.730033    7.787368    8.647484   -0.058151    0.037519    0.037817
    0.018125    7.730033    7.787368    8.647484   -0.058151    0.037519    0.037817
    0.036251    7.730661    7.788044    8.648375   -0.058177    0.037542    0.037840
    0.054376    7.731709    7.789172    8.649861   -0.058219    0.037582    0.037879
    0.072502    7.733177    7.790754    8.651944   -0.058278    0.037637    0.037934
    0.090627    7.735068    7.792790    8.654628   -0.058355    0.037709    0.038005
    0.108752    7.737384    7.795285    8.657916   -0.058449    0.037796    0.038092
    0.126878    7.740127    7.798240    8.661811   -0.058560    0.037901    0.038196
    0.145003    7.743300    7.801660    8.666320   -0.058690    0.038022    0.038316
    0.163128    7.746907    7.805549    8.671450   -0.058838    0.038160    0.038453
    0.181254    7.750952    7.809912    8.677206   -0.059004    0.038315    0.038607
    0.199379    7.755439    7.814756    8.683598   -0.059189    0.038489    0.038780
    0.217505    7.760375    7.820086    8.690634   -0.059394    0.038681    0.038970
    0.235630    7.765765    7.825909    8.698325   -0.059619    0.038892    0.039180
    0.253755    7.771616    7.832234    8.706682   -0.059864    0.039123    0.039409
    0.271881    7.777934    7.839070    8.715718   -0.060131    0.039375    0.039658
    0.290006    7.784728    7.846426    8.725448   -0.060420    0.039647    0.039928
    0.308132    7.792007    7.854313    8.735885   -0.060732    0.039941    0.040220
    0.326257    7.799780    7.862743    8.747048   -0.061068    0.040259    0.040535
    0.344382    7.808057    7.871728    8.758954   -0.061428    0.040600    0.040873
    0.362508    7.816849    7.881283    8.771623   -0.061814    0.040967    0.041237
    0.380633    7.826170    7.891423    8.785078   -0.062228    0.041360    0.041627
    0.398758    7.836032    7.902164    8.799342   -0.062669    0.041781    0.042044
    0.416884    7.846449    7.913523    8.814440   -0.063141    0.042231    0.042490
    0.435009    7.857436    7.925521    8.830400   -0.063644    0.042712    0.042967
    0.453135    7.869012    7.938178    8.847251   -0.064180    0.043226    0.043476
    0.471260    7.881192    7.951515    8.865025   -0.064750    0.043775    0.044019
    0.489385    7.893995    7.965557    8.883755   -0.065357    0.044359    0.044598
    0.507511    7.907442    7.980326    8.903474   -0.066002    0.044983    0.045216
    0.525636    7.921552    7.995847    8.924215   -0.066687    0.045646    0.045873
    0.543761    7.936344    8.012145    8.946010   -0.067414    0.046352    0.046572
    0.561887    7.951838    8.029239    8.968884   -0.068182    0.047101    0.047313
    0.580012    7.968047    8.047146    8.992852   -0.068993    0.047894    0.048098
    0.598138    7.984982    8.065872    9.017909   -0.069844    0.048729    0.048926
    0.616263    8.002640    8.085406    9.044025   -0.070732    0.049605    0.049792
    0.634388    8.021006    8.105716    9.071126   -0.071649    0.050513    0.050691
    0.652514    8.040044    8.126739    9.099091   -0.072585    0.051444    0.051614
    0.670639    8.059694    8.148379    9.127747   -0.073524    0.052383    0.052545
    0.688765    8.079874    8.170508    9.156877   -0.074451    0.053312    0.053466
    0.706890    8.100489    8.192977    9.186247   -0.075346    0.054211    0.054359
    0.725015    8.121435    8.215632    9.215620   -0.076194    0.055059    0.055202
    0.743141    8.142616    8.238326    9.244781   -0.076980    0.055837    0.055976
    0.761266    8.163944    8.260928    9.273546   -0.077692    0.056527    0.056665
    0.779391    8.185351    8.283333    9.301769   -0.078320    0.057115    0.057254
    0.797517    8.206786    8.305460    9.329338   -0.078856    0.057590    0.057732
    0.815642    8.228212    8.327249    9.356174   -0.079296    0.057942    0.058090
    0.833768    8.249610    8.348663    9.382228   -0.079637    0.058164    0.058321
    0.851893    8.270976    8.369684    9.407475   -0.079875    0.058253    0.058421
    0.870018    8.292314    8.390308    9.431910   -0.080011    0.058204    0.058386
    0.888144    8.313640    8.410543    9.455545   -0.080044    0.058016    0.058215
    0.906269    8.334978    8.430410    9.478405   -0.079975    0.057687    0.057906
    0.924395    8.356360    8.449939    9.500528   -0.079805    0.057217    0.057459
    0.942520    8.377823    8.469164    9.521958   -0.079536    0.056606    0.056874
    0.960645    8.399411    8.488129    9.542749   -0.079169    0.055855    0.056151
    0.978771    8.421171    8.506881    9.562959   -0.078707    0.054964    0.055292
    0.996896    8.443155    8.525473    9.582653   -0.078152    0.053935    0.054298
    1.015021    8.465419    8.543959    9.601896   -0.077506    0.052768    0.053169
    1.033147    8.488021    8.562400    9.620759   -0.076771    0.051465    0.051906
    1.051272    8.511024    8.580854    9.639315   -0.075949    0.050026    0.050512
    1.069398    8.534488    8.599382    9.657636   -0.075040    0.048454    0.048986
[...]
   54.104269    0.883496    0.883490    0.883187    0.000057   -0.000020   -0.000017
   54.122394    0.883583    0.883577    0.883274    0.000057   -0.000020   -0.000016
   54.140520    0.883670    0.883664    0.883361    0.000057   -0.000020   -0.000016
   54.158645    0.883757    0.883751    0.883448    0.000057   -0.000020   -0.000016
   54.176771    0.883843    0.883837    0.883535    0.000057   -0.000020   -0.000016
   54.194896    0.883930    0.883924    0.883622    0.000057   -0.000020   -0.000016
   54.213021    0.884016    0.884010    0.883708    0.000057   -0.000020   -0.000016
   54.231147    0.884102    0.884096    0.883795    0.000057   -0.000020   -0.000016
   54.249272    0.884189    0.884182    0.883881    0.000057   -0.000020   -0.000016
   54.267398    0.884275    0.884269    0.883968    0.000057   -0.000020   -0.000016
   54.285523    0.884361    0.884354    0.884054    0.000056   -0.000020   -0.000016
   54.303648    0.884446    0.884440    0.884140    0.000056   -0.000020   -0.000016
   54.321774    0.884532    0.884526    0.884226    0.000056   -0.000020   -0.000016
   54.339899    0.884618    0.884612    0.884312    0.000056   -0.000020   -0.000016
   54.358024    0.884703    0.884697    0.884398    0.000056   -0.000020   -0.000016

 The outermost node in the dielectric function lies at epsilon=  17.1

 total charge

# of ion       s       p       d       tot
    1        0.413   0.274   9.593  10.281
    2        0.413   0.274   9.593  10.281
    3        0.333   0.311   9.367  10.011
    4        0.333   0.311   9.367  10.011
    5        0.333   0.311   9.367  10.011
    6        0.333   0.311   9.367  10.011
    7        1.125   1.042   0.110   2.277
    8        1.125   1.042   0.110   2.277
    9        1.462   2.389   0.040   3.891
   10        1.462   2.389   0.040   3.891
   11        1.462   2.389   0.040   3.891
   12        1.462   2.389   0.040   3.891
   13        1.462   2.389   0.040   3.891
   14        1.462   2.389   0.040   3.891
   15        1.462   2.389   0.040   3.891
   16        1.462   2.389   0.040   3.891
tot         16.103  22.989  57.195  96.286

 BZINTS: Fermi energy:    2.196108;  124.000000 electrons
         Band energy:-0.431975E+03;  BLOECHL correction:   -0.000000