 vasp.6.1.0 28Jan20 (build Jan 11 2021 12:12:08) complex

 executed on             LinuxIFC date 2021.03.19  21:16:09

 INCAR:
 POTCAR:    PAW_PBE Cd 06Sep2000
 POTCAR:    PAW_PBE Cu 22Jun2005
 POTCAR:    PAW_PBE Ge 05Jan2001
 POTCAR:    PAW_PBE Se 06Sep2000
 POTCAR:    PAW_PBE S 06Sep2000
|           W    W    AA    RRRRR   N    N  II  N    N   GGGG   !!!           |
|           W    W   A  A   R    R  NN   N  II  NN   N  G    G  !!!           |
|           W    W  A    A  R    R  N N  N  II  N N  N  G       !!!           |
|           W WW W  AAAAAA  RRRRR   N  N N  II  N  N N  G  GGG   !            |
|           WW  WW  A    A  R   R   N   NN  II  N   NN  G    G                |
|           W    W  A    A  R    R  N    N  II  N    N   GGGG   !!!           |
|     For optimal performance we recommend to set                             |
|       NCORE = 4 - approx SQRT(number of cores).                             |
|     This setting can greatly improve the performance of VASP for DFT.       |
|     The default, NCORE=1 might be grossly inefficient on modern             |
|     multi-core architectures or massively parallel machines. Do your        |
|     own testing!!!!                                                         |
|     Unfortunately you need to use the default for GW and RPA                |
|     calculations (for HF NCORE is supported but not extensively tested      |
|     yet).                                                                   |

 POTCAR:    PAW_PBE Cd 06Sep2000
   VRHFIN =Cd : s2 d10

   TITEL  = PAW_PBE Cd 06Sep2000
   POMASS =  112.411; ZVAL   =   12.000    mass and valenz
   ENMAX  =  274.336; ENMIN  =  205.752 eV

 POTCAR:    PAW_PBE Cu 22Jun2005
   VRHFIN =Cu: d10 p1

   TITEL  = PAW_PBE Cu 22Jun2005
   POMASS =   63.546; ZVAL   =   11.000    mass and valenz
   ENMAX  =  295.446; ENMIN  =  221.585 eV

 POTCAR:    PAW_PBE Ge 05Jan2001
   VRHFIN =Ge: s2p2

   TITEL  = PAW_PBE Ge 05Jan2001
   POMASS =   72.610; ZVAL   =    4.000    mass and valenz
   ENMAX  =  173.807; ENMIN  =  130.355 eV

 POTCAR:    PAW_PBE Se 06Sep2000
   VRHFIN =Se: s2p4

[...]

 POTCAR:    PAW_PBE S 06Sep2000
   VRHFIN =S : s2p4

   TITEL  = PAW_PBE S 06Sep2000
   POMASS =   32.066; ZVAL   =    6.000    mass and valenz
   ENMAX  =  258.689; ENMIN  =  194.016 eV

  PAW_PBE Cd 06Sep2000                  :
  PAW_PBE Cu 22Jun2005                  :
  PAW_PBE Ge 05Jan2001                  :
  PAW_PBE Se 06Sep2000                  :
  PAW_PBE S 06Sep2000                   :

 POSCAR: x 0.625
  positions in direct lattice
  velocities in cartesian coordinates
 exchange correlation table for  LEXCH =        8
   RHO(1)=    0.500       N(1)  =     2000
   RHO(2)=  100.500       N(2)  =     4000

 ion  position               nearest neighbor table
   1  0.004  0.997  0.989-  12 2.59  14 2.59  15 2.59   9 2.67
   2  0.500  0.500  0.517-  16 2.59  13 2.59  10 2.66  11 2.66
   3  0.021  0.510  0.243-  12 2.28  10 2.43  11 2.43   9 2.44
   4  0.496  0.003  0.752-  16 2.33  13 2.33  15 2.34  14 2.34
   5  0.491  0.979  0.243-  12 2.28  11 2.43  10 2.43   9 2.44
   6  0.997  0.504  0.752-  16 2.33  13 2.33  14 2.34  15 2.34
   7  0.998  0.003  0.511-  16 2.31  13 2.31  11 2.43  10 2.43
   8  0.497  0.503  0.992-  14 2.30  15 2.30  12 2.31   9 2.43
   9  0.732  0.268  0.133-   8 2.43   3 2.44   5 2.44   1 2.67
  10  0.239  0.231  0.369-   3 2.43   7 2.43   5 2.43   2 2.66
  11  0.770  0.761  0.369-   5 2.43   7 2.43   3 2.43   2 2.66
  12  0.269  0.731  0.124-   5 2.28   3 2.28   8 2.31   1 2.59
  13  0.224  0.776  0.643-   7 2.31   6 2.33   4 2.33   2 2.59
  14  0.723  0.730  0.862-   8 2.30   6 2.34   4 2.34   1 2.59
  15  0.270  0.278  0.862-   8 2.30   4 2.34   6 2.34   1 2.59
  16  0.773  0.228  0.644-   7 2.31   4 2.33   6 2.33   2 2.59

  LATTYP: Found a base centered monoclinic cell.
 ALAT       =    32.3011294472
 B/A-ratio  =     0.2480436669
 C/A-ratio  =     0.5974059986
 COS(beta)  =    -0.9902347989

  Lattice vectors:

 A1 = (  -5.6323572940,  11.2977740000,  10.8409418342)
 A2 = ( -11.2977844238,   5.6323939501,  10.8409095204)
 A3 = (  11.2922595756, -11.2922810525, -10.8323205180)

Analysis of symmetry for initial positions (statically):
 Subroutine PRICEL returns:
 Original cell was already a primitive cell.

 Routine SETGRP: Setting up the symmetry group for a
 base centered monoclinic supercell.

 Subroutine GETGRP returns: Found  1 space group operations
 (whereof  1 operations were pure point group operations)
 out of a pool of  4 trial point group operations.

The static configuration has the point symmetry C_1 .

Analysis of symmetry for dynamics (positions and initial velocities):
 Subroutine PRICEL returns:
 Original cell was already a primitive cell.

 Routine SETGRP: Setting up the symmetry group for a
 base centered monoclinic supercell.

 Subroutine GETGRP returns: Found  1 space group operations
 (whereof  1 operations were pure point group operations)
 out of a pool of  4 trial point group operations.

The dynamic configuration has the point symmetry C_1 .

 Subroutine INISYM returns: Found  1 space group operations
 (whereof  1 operations are pure point group operations),
 and found     1 'primitive' translations

                                     Primitive cell

  volume of cell :     348.1077

  direct lattice vectors                    reciprocal lattice vectors
     5.659902282  0.005492947  0.008621316     0.176682072 -0.000172874 -0.000268459
     0.005524848  5.659887102 -0.008589002    -0.000171880  0.176682545  0.000268653
     0.016495291 -0.016507257 10.866741155    -0.000140310  0.000139786  0.092024334

  length of vectors
     5.659911513  5.659896316 10.866766213     0.176682361  0.176682833  0.092024548

  position of ions in fractional coordinates (direct lattice)
     0.003665249  0.996617304  0.988798553
     0.499817663  0.500442016  0.516742375
     0.021470244  0.509725853  0.242597658
     0.496278741  0.003194662  0.751936782
     0.490563193  0.978810968  0.242596036
     0.997102004  0.504012158  0.751938372
     0.997770552  0.002507998  0.510801085
     0.497121722  0.503164731  0.992425556
     0.732453245  0.267834005  0.133264862
     0.238877440  0.230765180  0.368958709
     0.769508909  0.761397473  0.368963493
     0.269078630  0.731206888  0.124100084
     0.223938310  0.776352202  0.642646612
     0.722530229  0.730447238  0.861747726
     0.269839242  0.277754542  0.861749170
     0.772644629  0.227646780  0.644102865

  ion indices of the primitive-cell ions
   primitive index   ion index
                 1           1
                 2           2
                 3           3
                 4           4
                 5           5
                 6           6
                 7           7
                 8           8
                 9           9
                10          10
                11          11
                12          12
                13          13
                14          14
                15          15
                16          16

 KPOINTS: elec

Automatic generation of k-mesh.
Space group operators:
 irot       det(A)        alpha          n_x          n_y          n_z        tau_x        tau_y        tau_z
    1     1.000000     0.000001     1.000000     0.000000     0.000000     0.000000     0.000000     0.000000
 TETIRR: Found    540 inequivalent tetrahedra from     1080

 Subroutine IBZKPT returns following result:

 Found     92 irreducible k-points:

 Following reciprocal coordinates:
            Coordinates               Weight
  0.000000  0.000000  0.000000      1.000000
  0.166667  0.000000  0.000000      2.000000
  0.333333  0.000000  0.000000      2.000000
  0.500000 -0.000000  0.000000      1.000000
 -0.000000  0.166667 -0.000000      2.000000
  0.166667  0.166667 -0.000000      2.000000
  0.333333  0.166667 -0.000000      2.000000
  0.500000  0.166667  0.000000      2.000000
 -0.333333  0.166667 -0.000000      2.000000
 -0.166667  0.166667 -0.000000      2.000000
 -0.000000  0.333333 -0.000000      2.000000
  0.166667  0.333333 -0.000000      2.000000
  0.333333  0.333333 -0.000000      2.000000
  0.500000  0.333333 -0.000000      2.000000
 -0.333333  0.333333 -0.000000      2.000000
 -0.166667  0.333333 -0.000000      2.000000
 -0.000000  0.500000 -0.000000      1.000000
  0.166667  0.500000 -0.000000      2.000000
  0.333333  0.500000 -0.000000      2.000000
  0.500000  0.500000 -0.000000      1.000000
  0.000000 -0.000000  0.200000      2.000000
  0.166667  0.000000  0.200000      2.000000
  0.333333  0.000000  0.200000      2.000000
  0.500000 -0.000000  0.200000      2.000000
 -0.333333 -0.000000  0.200000      2.000000
 -0.166667  0.000000  0.200000      2.000000
 -0.000000  0.166667  0.200000      2.000000
  0.166667  0.166667  0.200000      2.000000
  0.333333  0.166667  0.200000      2.000000
  0.500000  0.166667  0.200000      2.000000
 -0.333333  0.166667  0.200000      2.000000
 -0.166667  0.166667  0.200000      2.000000
 -0.000000  0.333333  0.200000      2.000000
  0.166667  0.333333  0.200000      2.000000
  0.333333  0.333333  0.200000      2.000000
  0.500000  0.333333  0.200000      2.000000
 -0.333333  0.333333  0.200000      2.000000
 -0.166667  0.333333  0.200000      2.000000
 -0.000000  0.500000  0.200000      2.000000
  0.166667  0.500000  0.200000      2.000000
  0.333333  0.500000  0.200000      2.000000
  0.500000  0.500000  0.200000      2.000000
 -0.333333  0.500000  0.200000      2.000000
 -0.166667  0.500000  0.200000      2.000000
  0.000000 -0.333333  0.200000      2.000000
  0.166667 -0.333333  0.200000      2.000000
  0.333333 -0.333333  0.200000      2.000000
  0.500000 -0.333333  0.200000      2.000000
 -0.333333 -0.333333  0.200000      2.000000
 -0.166667 -0.333333  0.200000      2.000000
  0.000000 -0.166667  0.200000      2.000000
  0.166667 -0.166667  0.200000      2.000000
  0.333333 -0.166667  0.200000      2.000000
  0.500000 -0.166667  0.200000      2.000000
 -0.333333 -0.166667  0.200000      2.000000
 -0.166667 -0.166667  0.200000      2.000000
  0.000000 -0.000000  0.400000      2.000000
  0.166667 -0.000000  0.400000      2.000000
  0.333333  0.000000  0.400000      2.000000
  0.500000 -0.000000  0.400000      2.000000
[...]
  0.500000  0.500000  0.400000      2.000000
 -0.333333  0.500000  0.400000      2.000000
 -0.166667  0.500000  0.400000      2.000000
  0.000000 -0.333333  0.400000      2.000000
  0.166667 -0.333333  0.400000      2.000000
  0.333333 -0.333333  0.400000      2.000000
  0.500000 -0.333333  0.400000      2.000000
 -0.333333 -0.333333  0.400000      2.000000
 -0.166667 -0.333333  0.400000      2.000000
  0.000000 -0.166667  0.400000      2.000000
  0.166667 -0.166667  0.400000      2.000000
  0.333333 -0.166667  0.400000      2.000000
  0.500000 -0.166667  0.400000      2.000000
 -0.333333 -0.166667  0.400000      2.000000
 -0.166667 -0.166667  0.400000      2.000000

 Following cartesian coordinates:
            Coordinates               Weight
  0.000000  0.000000  0.000000      1.000000
  0.029447 -0.000029 -0.000045      2.000000
  0.058894 -0.000058 -0.000089      2.000000
[...]
    0.833505    7.192792    7.191156    7.870567    0.017735   -0.023178    0.036020
    0.852448    7.208050    7.206385    7.889747    0.016711   -0.023364    0.036542
    0.871392    7.223893    7.222196    7.909664    0.015614   -0.023562    0.037096
    0.890335    7.240347    7.238616    7.930352    0.014436   -0.023771    0.037684
    0.909278    7.257440    7.255672    7.951847    0.013171   -0.023993    0.038308
    0.928222    7.275201    7.273395    7.974185    0.011811   -0.024229    0.038973
    0.947165    7.293664    7.291817    7.997410    0.010347   -0.024480    0.039680
    0.966108    7.312863    7.310972    8.021565    0.008771   -0.024747    0.040434
    0.985052    7.332836    7.330896    8.046698    0.007073   -0.025031    0.041238
    1.003995    7.353619    7.351629    8.072858    0.005245   -0.025332    0.042094
    1.022938    7.375251    7.373206    8.100096    0.003279   -0.025652    0.043005
    1.041881    7.397766    7.395663    8.128461    0.001171   -0.025988    0.043973
    1.060825    7.421192    7.419026    8.157998   -0.001077   -0.026340    0.044995
    1.079768    7.445545    7.443311    8.188737   -0.003456   -0.026701    0.046066
    1.098711    7.470822    7.468518    8.220694   -0.005945   -0.027067    0.047177
    1.117655    7.497003    7.494624    8.253856   -0.008515   -0.027427    0.048314
[...]
   56.545747    0.883923    0.883929    0.883826   -0.000101    0.000008    0.000016
   56.564690    0.884010    0.884016    0.883913   -0.000101    0.000008    0.000016
   56.583633    0.884097    0.884103    0.884000   -0.000101    0.000008    0.000016
   56.602576    0.884184    0.884189    0.884087   -0.000101    0.000008    0.000016
   56.621520    0.884270    0.884276    0.884174   -0.000101    0.000008    0.000016
   56.640463    0.884357    0.884363    0.884261   -0.000101    0.000008    0.000016
   56.659406    0.884443    0.884449    0.884348   -0.000101    0.000008    0.000016
   56.678350    0.884530    0.884535    0.884434   -0.000101    0.000008    0.000016
   56.697293    0.884616    0.884622    0.884521   -0.000101    0.000008    0.000016
   56.716236    0.884702    0.884708    0.884607   -0.000101    0.000008    0.000016
   56.735180    0.884788    0.884794    0.884693   -0.000101    0.000008    0.000016
   56.754123    0.884874    0.884880    0.884779   -0.000101    0.000008    0.000016
   56.773066    0.884960    0.884966    0.884865   -0.000101    0.000008    0.000016
   56.792009    0.885046    0.885051    0.884951   -0.000101    0.000008    0.000016
   56.810953    0.885131    0.885137    0.885037   -0.000101    0.000008    0.000016

  frequency dependent IMAGINARY DIELECTRIC FUNCTION (independent particle, no local field effects) current-current
     E(ev)      X         Y         Z        XY        YZ        ZX
    0.000000   60.866410   60.853190   67.530233    0.026696   -0.068989    0.384746
    0.018943   60.866410   60.853190   67.530233    0.026696   -0.068989    0.384746
    0.037887   30.437050   30.430435   33.770029    0.013190   -0.034478    0.192494
    0.056830   20.295641   20.291226   22.518815    0.008618   -0.022968    0.128463
    0.075773   15.226224   15.222907   16.894852    0.006278   -0.017207    0.096489
    0.094716   12.185607   12.182947   13.521796    0.004831   -0.013746    0.077337
    0.113660   10.159394   10.157171   11.274197    0.003830   -0.011436    0.064597
    0.132603    8.712844    8.710933    9.669722    0.003084   -0.009782    0.055520
    0.151546    7.628589    7.626910    8.467206    0.002495   -0.008538    0.048735
    0.170490    6.785867    6.784368    7.532668    0.002011   -0.007569    0.043476
    0.189433    6.112223    6.110868    6.785721    0.001600   -0.006790    0.039287
    0.208376    5.561551    5.560311    6.175210    0.001242   -0.006151    0.035876
    0.227320    5.103111    5.101968    5.667032    0.000922   -0.005616    0.033048
    0.246263    4.715624    4.714562    5.237579    0.000630   -0.005162    0.030671
    0.265206    4.383891    4.382898    4.869988    0.000361   -0.004770    0.028647
    0.284149    4.096767    4.095833    4.551893    0.000109   -0.004428    0.026907
    0.303093    3.845893    3.845010    4.274021   -0.000131   -0.004127    0.025397
    0.322036    3.624877    3.624038    4.029281   -0.000360   -0.003859    0.024077
    0.340979    3.428748    3.427949    3.812159   -0.000583   -0.003620    0.022917
    0.359923    3.253583    3.252818    3.618301   -0.000800   -0.003403    0.021891
    0.378866    3.096243    3.095509    3.444226   -0.001014   -0.003206    0.020980
    0.397809    2.954188    2.953481    3.287116   -0.001225   -0.003026    0.020167
    0.416753    2.825340    2.824656    3.144666   -0.001436   -0.002860    0.019441
    0.435696    2.707983    2.707320    3.014972   -0.001648   -0.002706    0.018790
    0.454639    2.600686    2.600043    2.896449   -0.001860   -0.002563    0.018206
    0.473582    2.502251    2.501625    2.787766   -0.002076   -0.002429    0.017681
    0.492526    2.411661    2.411050    2.687796   -0.002295   -0.002304    0.017209
    0.511469    2.328053    2.327455    2.595583   -0.002518   -0.002185    0.016785
    0.530412    2.250687    2.250101    2.510305   -0.002747   -0.002072    0.016404
    0.549356    2.178925    2.178349    2.431256   -0.002983   -0.001965    0.016063
    0.568299    2.112215    2.111647    2.357825   -0.003226   -0.001862    0.015759
    0.587242    2.050077    2.049518    2.289479   -0.003477   -0.001762    0.015489
    0.606186    1.992093    1.991540    2.225755   -0.003738   -0.001667    0.015250
    0.625129    1.937894    1.937347    2.166246   -0.004010   -0.001574    0.015042
    0.644072    1.887159    1.886615    2.110594   -0.004294   -0.001483    0.014863
    0.663015    1.839600    1.839060    2.058484   -0.004591   -0.001394    0.014710
    0.681959    1.794965    1.794427    2.009635   -0.004904   -0.001306    0.014585
    0.700902    1.753030    1.752494    1.963801   -0.005233   -0.001220    0.014485
    0.719845    1.713596    1.713059    1.920762   -0.005582   -0.001134    0.014411
    0.738789    1.676485    1.675947    1.880321   -0.005951   -0.001048    0.014362
    0.757732    1.641539    1.640999    1.842306   -0.006343   -0.000962    0.014338
    0.776675    1.608616    1.608073    1.806561   -0.006761   -0.000875    0.014341
    0.795619    1.577591    1.577044    1.772949   -0.007209   -0.000787    0.014370
    0.814562    1.548353    1.547800    1.741349   -0.007689   -0.000698    0.014427
    0.833505    1.520802    1.520242    1.711652   -0.008206   -0.000607    0.014513
    0.852448    1.494851    1.494283    1.683766   -0.008766   -0.000513    0.014630
    0.871392    1.470424    1.469847    1.657608   -0.009373   -0.000416    0.014780
    0.890335    1.447457    1.446867    1.633109   -0.010035   -0.000316    0.014967
    0.909278    1.425893    1.425290    1.610214   -0.010759   -0.000212    0.015193
    0.928222    1.405688    1.405070    1.588875   -0.011556   -0.000103    0.015463
    0.947165    1.386809    1.386173    1.569063   -0.012438    0.000012    0.015784
    0.966108    1.369233    1.368576    1.550756   -0.013419    0.000134    0.016161
    0.985052    1.352949    1.352269    1.533952   -0.014517    0.000263    0.016603
    1.003995    1.337962    1.337255    1.518663   -0.015753    0.000401    0.017121
    1.022938    1.324289    1.323551    1.504919   -0.017153    0.000550    0.017728
    1.041881    1.311965    1.311190    1.492772   -0.018748    0.000711    0.018438
    1.060825    1.301037    1.300220    1.482291   -0.020571    0.000888    0.019269
    1.079768    1.291566    1.290700    1.473566   -0.022658    0.001083    0.020239
    1.098711    1.283616    1.282693    1.466696   -0.025040    0.001304    0.021363
    1.117655    1.277244    1.276256    1.461782   -0.027739    0.001557    0.022655
[...]
   56.545747    0.000049    0.000049    0.000050   -0.000000   -0.000000    0.000000
   56.564690    0.000049    0.000049    0.000050   -0.000000   -0.000000    0.000000
   56.583633    0.000049    0.000049    0.000049   -0.000000   -0.000000    0.000000
   56.602576    0.000049    0.000049    0.000049   -0.000000   -0.000000    0.000000
   56.621520    0.000048    0.000048    0.000049   -0.000000   -0.000000    0.000000
   56.640463    0.000048    0.000048    0.000049   -0.000000   -0.000000    0.000000
   56.659406    0.000048    0.000048    0.000049   -0.000000   -0.000000    0.000000
   56.678350    0.000048    0.000048    0.000049   -0.000000   -0.000000    0.000000
   56.697293    0.000048    0.000048    0.000049   -0.000000   -0.000000    0.000000
   56.716236    0.000048    0.000048    0.000049   -0.000000   -0.000000    0.000000
   56.735180    0.000048    0.000048    0.000049   -0.000000   -0.000000    0.000000
   56.754123    0.000048    0.000048    0.000048   -0.000000   -0.000000    0.000000
   56.773066    0.000048    0.000048    0.000048   -0.000000   -0.000000    0.000000
   56.792009    0.000047    0.000047    0.000048   -0.000000   -0.000000    0.000000
   56.810953    0.000047    0.000047    0.000048   -0.000000   -0.000000    0.000000

  frequency dependent      REAL DIELECTRIC FUNCTION (independent particle, no local field effects) current-current
     E(ev)        X           Y           Z          XY          YZ          ZX
    0.000000    6.751362    6.750127    7.378731    0.003094   -0.006592    0.036010
    0.018943    6.751362    6.750127    7.378731    0.003094   -0.006592    0.036010
    0.037887    6.751720    6.750485    7.379189    0.003080   -0.006590    0.036021
    0.056830    6.752318    6.751082    7.379952    0.003056   -0.006588    0.036040
    0.075773    6.753155    6.751918    7.381021    0.003023   -0.006585    0.036065
    0.094716    6.754232    6.752994    7.382397    0.002980   -0.006580    0.036098
    0.113660    6.755550    6.754311    7.384080    0.002928   -0.006575    0.036139
    0.132603    6.757110    6.755868    7.386072    0.002866   -0.006569    0.036187
    0.151546    6.758912    6.757669    7.388374    0.002794   -0.006562    0.036243
    0.170490    6.760959    6.759712    7.390988    0.002711   -0.006553    0.036307
    0.189433    6.763250    6.762001    7.393915    0.002619   -0.006544    0.036378
    0.208376    6.765789    6.764536    7.397157    0.002516   -0.006534    0.036457
    0.227320    6.768576    6.767319    7.400718    0.002402   -0.006522    0.036544
    0.246263    6.771613    6.770353    7.404599    0.002278   -0.006510    0.036639
    0.265206    6.774902    6.773638    7.408803    0.002142   -0.006496    0.036743
    0.284149    6.778447    6.777178    7.413333    0.001994   -0.006481    0.036855
    0.303093    6.782248    6.780974    7.418192    0.001835   -0.006465    0.036976
    0.322036    6.786310    6.785030    7.423384    0.001663   -0.006447    0.037106
    0.340979    6.790634    6.789348    7.428913    0.001479   -0.006428    0.037245
    0.359923    6.795224    6.793932    7.434783    0.001282   -0.006408    0.037393
    0.378866    6.800083    6.798784    7.440998    0.001071   -0.006386    0.037551
    0.397809    6.805214    6.803909    7.447563    0.000846   -0.006363    0.037719
    0.416753    6.810623    6.809310    7.454483    0.000606   -0.006338    0.037897
    0.435696    6.816312    6.814991    7.461764    0.000351   -0.006312    0.038085
    0.454639    6.822286    6.820957    7.469412    0.000080   -0.006283    0.038284
    0.473582    6.828550    6.827212    7.477432   -0.000208   -0.006253    0.038495
    0.492526    6.835109    6.833761    7.485832   -0.000513   -0.006221    0.038717
    0.511469    6.841968    6.840610    7.494618   -0.000837   -0.006187    0.038952
    0.530412    6.849133    6.847764    7.503799   -0.001179   -0.006150    0.039199
    0.549356    6.856609    6.855230    7.513381   -0.001542   -0.006112    0.039460
    0.568299    6.864405    6.863013    7.523375   -0.001927   -0.006071    0.039734
    0.587242    6.872525    6.871121    7.533788   -0.002334   -0.006027    0.040022
    0.606186    6.880979    6.879561    7.544631   -0.002764   -0.005981    0.040326
    0.625129    6.889773    6.888342    7.555915   -0.003220   -0.005932    0.040645
    0.644072    6.898916    6.897470    7.567650   -0.003703   -0.005879    0.040981
    0.663015    6.908417    6.906956    7.579849   -0.004214   -0.005824    0.041335
    0.681959    6.918286    6.916809    7.592524   -0.004754   -0.005765    0.041706
    0.700902    6.928533    6.927039    7.605689   -0.005327   -0.005702    0.042098
    0.719845    6.939170    6.937657    7.619359   -0.005935   -0.005635    0.042509
    0.738789    6.950207    6.948675    7.633549   -0.006578   -0.005565    0.042943
    0.757732    6.961658    6.960106    7.648276   -0.007261   -0.005489    0.043400
    0.776675    6.973537    6.971963    7.663559   -0.007986   -0.005409    0.043881
    0.795619    6.985858    6.984261    7.679416   -0.008755   -0.005324    0.044388
    0.814562    6.998637    6.997016    7.695870   -0.009573   -0.005233    0.044923
    0.833505    7.011890    7.010244    7.712941   -0.010442   -0.005136    0.045488
    0.852448    7.025637    7.023964    7.730656   -0.011368   -0.005033    0.046085
    0.871392    7.039897    7.038195    7.749038   -0.012354   -0.004922    0.046716
    0.890335    7.054691    7.052958    7.768118   -0.013405   -0.004805    0.047384
    0.909278    7.070042    7.068276    7.787924   -0.014526   -0.004679    0.048090
    0.928222    7.085973    7.084173    7.808490   -0.015722   -0.004544    0.048839
    0.947165    7.102510    7.100673    7.829848   -0.016999   -0.004400    0.049632
    0.966108    7.119679    7.117803    7.852034   -0.018361   -0.004245    0.050472
    0.985052    7.137506    7.135588    7.875084   -0.019814   -0.004078    0.051362
    1.003995    7.156015    7.154053    7.899034   -0.021361   -0.003899    0.052304
    1.022938    7.175226    7.173217    7.923913   -0.023000   -0.003706    0.053297
    1.041881    7.195152    7.193093    7.949746   -0.024728   -0.003496    0.054340
    1.060825    7.215791    7.213679    7.976540   -0.026531   -0.003268    0.055425
    1.079768    7.237123    7.234956    8.004283   -0.028386   -0.003020    0.056543
    1.098711    7.259103    7.256879    8.032930   -0.030260   -0.002751    0.057676
    1.117655    7.281659    7.279378    8.062402   -0.032109   -0.002459    0.058802
[...]
   56.545747    0.884477    0.884482    0.884134    0.000050   -0.000014   -0.000001
   56.564690    0.884563    0.884568    0.884221    0.000050   -0.000014   -0.000001
   56.583633    0.884650    0.884655    0.884307    0.000050   -0.000014   -0.000001
   56.602576    0.884736    0.884741    0.884394    0.000050   -0.000014   -0.000001
   56.621520    0.884823    0.884828    0.884481    0.000050   -0.000014   -0.000001
   56.640463    0.884909    0.884914    0.884567    0.000050   -0.000014   -0.000001
   56.659406    0.884995    0.885000    0.884654    0.000050   -0.000014   -0.000001
   56.678350    0.885081    0.885086    0.884740    0.000050   -0.000014   -0.000001
   56.697293    0.885167    0.885172    0.884827    0.000050   -0.000014   -0.000001
   56.716236    0.885253    0.885257    0.884913    0.000050   -0.000014   -0.000001
   56.735180    0.885338    0.885343    0.884999    0.000050   -0.000014   -0.000001
   56.754123    0.885424    0.885429    0.885085    0.000050   -0.000014   -0.000001
   56.773066    0.885509    0.885514    0.885170    0.000050   -0.000014   -0.000001
   56.792009    0.885595    0.885600    0.885256    0.000050   -0.000014   -0.000001
   56.810953    0.885680    0.885685    0.885342    0.000050   -0.000014   -0.000001

 The outermost node in the dielectric function lies at epsilon=  18.3

 total charge

# of ion       s       p       d       tot
    1        0.396   0.280   9.602  10.278
    2        0.404   0.286   9.599  10.289
    3        0.338   0.329   9.367  10.034
    4        0.329   0.332   9.366  10.028
    5        0.338   0.329   9.367  10.034
    6        0.329   0.332   9.366  10.028
    7        1.103   1.079   0.134   2.316
    8        1.096   1.085   0.143   2.324
    9        1.463   2.398   0.041   3.902
   10        1.461   2.405   0.042   3.908
   11        1.461   2.405   0.042   3.908
   12        1.320   2.388   0.000   3.707
   13        1.323   2.380   0.000   3.703
   14        1.324   2.380   0.000   3.703
   15        1.324   2.380   0.000   3.703
   16        1.324   2.380   0.000   3.704
tot         15.331  23.169  57.069  95.569

 BZINTS: Fermi energy:    2.749460;  124.000000 electrons
         Band energy:-0.369769E+03;  BLOECHL correction:   -0.000000