 vasp.6.1.0 28Jan20 (build Jan 11 2021 12:12:08) complex

 executed on             LinuxIFC date 2021.03.21  21:07:10

 INCAR:
 POTCAR:    PAW_PBE Cd 06Sep2000
 POTCAR:    PAW_PBE Cu 22Jun2005
 POTCAR:    PAW_PBE Ge 05Jan2001
 POTCAR:    PAW_PBE Se 06Sep2000
 POTCAR:    PAW_PBE S 06Sep2000
|           W    W    AA    RRRRR   N    N  II  N    N   GGGG   !!!           |
|           W    W   A  A   R    R  NN   N  II  NN   N  G    G  !!!           |
|           W    W  A    A  R    R  N N  N  II  N N  N  G       !!!           |
|           W WW W  AAAAAA  RRRRR   N  N N  II  N  N N  G  GGG   !            |
|           WW  WW  A    A  R   R   N   NN  II  N   NN  G    G                |
|           W    W  A    A  R    R  N    N  II  N    N   GGGG   !!!           |
|     For optimal performance we recommend to set                             |
|       NCORE = 4 - approx SQRT(number of cores).                             |
|     This setting can greatly improve the performance of VASP for DFT.       |
|     The default, NCORE=1 might be grossly inefficient on modern             |
|     multi-core architectures or massively parallel machines. Do your        |
|     own testing!!!!                                                         |
|     Unfortunately you need to use the default for GW and RPA                |
|     calculations (for HF NCORE is supported but not extensively tested      |
|     yet).                                                                   |

 POTCAR:    PAW_PBE Cd 06Sep2000
   VRHFIN =Cd : s2 d10

   TITEL  = PAW_PBE Cd 06Sep2000
   POMASS =  112.411; ZVAL   =   12.000    mass and valenz
   ENMAX  =  274.336; ENMIN  =  205.752 eV

 POTCAR:    PAW_PBE Cu 22Jun2005
   VRHFIN =Cu: d10 p1

   TITEL  = PAW_PBE Cu 22Jun2005
   POMASS =   63.546; ZVAL   =   11.000    mass and valenz
   ENMAX  =  295.446; ENMIN  =  221.585 eV

 POTCAR:    PAW_PBE Ge 05Jan2001
   VRHFIN =Ge: s2p2

   TITEL  = PAW_PBE Ge 05Jan2001
   POMASS =   72.610; ZVAL   =    4.000    mass and valenz
   ENMAX  =  173.807; ENMIN  =  130.355 eV

 POTCAR:    PAW_PBE Se 06Sep2000
   VRHFIN =Se: s2p4

[...]

 POTCAR:    PAW_PBE S 06Sep2000
   VRHFIN =S : s2p4

   TITEL  = PAW_PBE S 06Sep2000
   POMASS =   32.066; ZVAL   =    6.000    mass and valenz
   ENMAX  =  258.689; ENMIN  =  194.016 eV

  PAW_PBE Cd 06Sep2000                  :
  PAW_PBE Cu 22Jun2005                  :
  PAW_PBE Ge 05Jan2001                  :
  PAW_PBE Se 06Sep2000                  :
  PAW_PBE S 06Sep2000                   :

 POSCAR: x 0.25
  positions in direct lattice
  velocities in cartesian coordinates
 exchange correlation table for  LEXCH =        8
   RHO(1)=    0.500       N(1)  =     2000
   RHO(2)=  100.500       N(2)  =     4000

 ion  position               nearest neighbor table
   1  0.004  0.004  0.991-  15 2.60  12 2.68   9 2.69  14 2.69
   2  0.504  0.496  0.510-  16 2.60  11 2.68  10 2.69  13 2.69
   3  0.994  0.500  0.251-  11 2.42  12 2.43   9 2.43  10 2.43
   4  0.512  0.030  0.749-  16 2.30  15 2.31  13 2.47  14 2.48
   5  0.494  0.000  0.250-  12 2.42  11 2.43  10 2.43   9 2.43
   6  0.012  0.470  0.751-  15 2.30  16 2.31  14 2.47  13 2.48
   7  0.995  0.002  0.506-  16 2.32  13 2.44  11 2.44  10 2.45
   8  0.495  0.498  0.994-  15 2.32  14 2.44  12 2.44   9 2.45
   9  0.728  0.265  0.132-   3 2.43   5 2.43   8 2.45   1 2.69
  10  0.228  0.236  0.369-   5 2.43   3 2.43   7 2.45   2 2.69
  11  0.760  0.769  0.368-   3 2.42   5 2.43   7 2.44   2 2.68
  12  0.260  0.731  0.133-   5 2.42   3 2.43   8 2.44   1 2.68
  13  0.232  0.775  0.644-   7 2.44   4 2.47   6 2.48   2 2.69
  14  0.732  0.725  0.856-   8 2.44   6 2.47   4 2.48   1 2.69
  15  0.276  0.268  0.864-   6 2.30   4 2.31   8 2.32   1 2.60
  16  0.776  0.232  0.636-   4 2.30   6 2.31   7 2.32   2 2.60

  LATTYP: Found a triclinic cell.
 ALAT       =     8.1632175769
 B/A-ratio  =     0.7064881132
 C/A-ratio  =     1.3585734739
 COS(alpha) =     0.0000052345
 COS(beta)  =     0.0046611348
 COS(gamma) =     0.7064820937

  Lattice vectors:

 A1 = (   5.7671987171,   5.7772987188,  -0.0189652028)
 A2 = (   5.7672161832,  -0.0000316367,  -0.0000061337)
 A3 = (   0.0000464578,   0.0365894780, -11.0902705029)

Analysis of symmetry for initial positions (statically):
 Subroutine PRICEL returns:
 Original cell was already a primitive cell.

 Routine SETGRP: Setting up the symmetry group for a
 triclinic supercell.

 Subroutine GETGRP returns: Found  1 space group operations
 (whereof  1 operations were pure point group operations)
 out of a pool of  2 trial point group operations.

The static configuration has the point symmetry C_1 .

Analysis of symmetry for dynamics (positions and initial velocities):
 Subroutine PRICEL returns:
 Original cell was already a primitive cell.

 Routine SETGRP: Setting up the symmetry group for a
 triclinic supercell.

 Subroutine GETGRP returns: Found  1 space group operations
 (whereof  1 operations were pure point group operations)
 out of a pool of  2 trial point group operations.

The dynamic configuration has the point symmetry C_1 .

 Subroutine INISYM returns: Found  1 space group operations
 (whereof  1 operations are pure point group operations),
 and found     1 'primitive' translations

                                     Primitive cell

  volume of cell :     369.5140

  direct lattice vectors                    reciprocal lattice vectors
     5.767216183 -0.000031637 -0.000006134     0.173393882  0.000000527  0.000000728
    -0.000017466  5.777330356 -0.018959069     0.000000950  0.173092201  0.000571073
    -0.000046458 -0.036589478 11.090270503     0.000000098  0.000295905  0.090170102

  length of vectors
     5.767216183  5.777361464 11.090330862     0.173393882  0.173093143  0.090170588

  position of ions in fractional coordinates (direct lattice)
     0.003869037  0.004326059  0.990619888
     0.503892040  0.495898190  0.509792693
     0.993510443  0.499900892  0.250571209
     0.511909050  0.030038857  0.749375663
     0.493504523  0.000332397  0.249868061
     0.011911948  0.470223002  0.751051584
     0.994544734  0.001889188  0.506378510
     0.494538347  0.498339972  0.994044920
     0.728159521  0.264620381  0.131869196
     0.228160243  0.235611527  0.368551982
     0.760487958  0.768865235  0.367633197
     0.260482394  0.731369246  0.132783637
     0.232431915  0.774908022  0.644218386
     0.732413055  0.725322774  0.856192921
     0.276416386  0.267792225  0.864325076
     0.776428405  0.232442033  0.636093016

  ion indices of the primitive-cell ions
   primitive index   ion index
                 1           1
                 2           2
                 3           3
                 4           4
                 5           5
                 6           6
                 7           7
                 8           8
                 9           9
                10          10
                11          11
                12          12
                13          13
                14          14
                15          15
                16          16

 KPOINTS: elec

Automatic generation of k-mesh.
Space group operators:
 irot       det(A)        alpha          n_x          n_y          n_z        tau_x        tau_y        tau_z
    1     1.000000     0.000001     1.000000     0.000000     0.000000     0.000000     0.000000     0.000000
 TETIRR: Found    540 inequivalent tetrahedra from     1080

 Subroutine IBZKPT returns following result:

 Found     92 irreducible k-points:

 Following reciprocal coordinates:
            Coordinates               Weight
  0.000000  0.000000  0.000000      1.000000
  0.166667 -0.000000  0.000000      2.000000
  0.333333 -0.000000  0.000000      2.000000
  0.500000 -0.000000  0.000000      1.000000
  0.000000  0.166667  0.000000      2.000000
  0.166667  0.166667  0.000000      2.000000
  0.333333  0.166667  0.000000      2.000000
  0.500000  0.166667 -0.000000      2.000000
 -0.333333  0.166667 -0.000000      2.000000
 -0.166667  0.166667 -0.000000      2.000000
  0.000000  0.333333 -0.000000      2.000000
  0.166667  0.333333 -0.000000      2.000000
  0.333333  0.333333 -0.000000      2.000000
  0.500000  0.333333 -0.000000      2.000000
 -0.333333  0.333333 -0.000000      2.000000
 -0.166667  0.333333 -0.000000      2.000000
  0.000000  0.500000  0.000000      1.000000
  0.166667  0.500000  0.000000      2.000000
  0.333333  0.500000  0.000000      2.000000
  0.500000  0.500000  0.000000      1.000000
  0.000000 -0.000000  0.200000      2.000000
  0.166667 -0.000000  0.200000      2.000000
  0.333333 -0.000000  0.200000      2.000000
  0.500000 -0.000000  0.200000      2.000000
 -0.333333 -0.000000  0.200000      2.000000
 -0.166667 -0.000000  0.200000      2.000000
 -0.000000  0.166667  0.200000      2.000000
  0.166667  0.166667  0.200000      2.000000
  0.333333  0.166667  0.200000      2.000000
  0.500000  0.166667  0.200000      2.000000
 -0.333333  0.166667  0.200000      2.000000
 -0.166667  0.166667  0.200000      2.000000
 -0.000000  0.333333  0.200000      2.000000
  0.166667  0.333333  0.200000      2.000000
  0.333333  0.333333  0.200000      2.000000
  0.500000  0.333333  0.200000      2.000000
 -0.333333  0.333333  0.200000      2.000000
 -0.166667  0.333333  0.200000      2.000000
 -0.000000  0.500000  0.200000      2.000000
  0.166667  0.500000  0.200000      2.000000
  0.333333  0.500000  0.200000      2.000000
  0.500000  0.500000  0.200000      2.000000
 -0.333333  0.500000  0.200000      2.000000
 -0.166667  0.500000  0.200000      2.000000
 -0.000000 -0.333333  0.200000      2.000000
  0.166667 -0.333333  0.200000      2.000000
  0.333333 -0.333333  0.200000      2.000000
  0.500000 -0.333333  0.200000      2.000000
 -0.333333 -0.333333  0.200000      2.000000
 -0.166667 -0.333333  0.200000      2.000000
  0.000000 -0.166667  0.200000      2.000000
  0.166667 -0.166667  0.200000      2.000000
  0.333333 -0.166667  0.200000      2.000000
  0.500000 -0.166667  0.200000      2.000000
 -0.333333 -0.166667  0.200000      2.000000
 -0.166667 -0.166667  0.200000      2.000000
  0.000000 -0.000000  0.400000      2.000000
  0.166667 -0.000000  0.400000      2.000000
  0.333333 -0.000000  0.400000      2.000000
  0.500000 -0.000000  0.400000      2.000000
[...]
  0.500000  0.500000  0.400000      2.000000
 -0.333333  0.500000  0.400000      2.000000
 -0.166667  0.500000  0.400000      2.000000
  0.000000 -0.333333  0.400000      2.000000
  0.166667 -0.333333  0.400000      2.000000
  0.333333 -0.333333  0.400000      2.000000
  0.500000 -0.333333  0.400000      2.000000
 -0.333333 -0.333333  0.400000      2.000000
 -0.166667 -0.333333  0.400000      2.000000
  0.000000 -0.166667  0.400000      2.000000
  0.166667 -0.166667  0.400000      2.000000
  0.333333 -0.166667  0.400000      2.000000
  0.500000 -0.166667  0.400000      2.000000
 -0.333333 -0.166667  0.400000      2.000000
 -0.166667 -0.166667  0.400000      2.000000

 Following cartesian coordinates:
            Coordinates               Weight
  0.000000  0.000000  0.000000      1.000000
  0.028899  0.000000  0.000000      2.000000
[...]
    0.814027    8.137776    8.042038    8.959945   -0.026327   -0.125699    0.013803
    0.832528    8.165846    8.067891    8.994219   -0.026975   -0.128930    0.014301
    0.851028    8.195058    8.094770    9.029854   -0.027652   -0.132279    0.014822
    0.869529    8.225365    8.122637    9.066786   -0.028357   -0.135703    0.015363
    0.888030    8.256697    8.151437    9.104921   -0.029084   -0.139152    0.015920
    0.906530    8.288962    8.181099    9.144144   -0.029830   -0.142570    0.016487
    0.925031    8.322058    8.211539    9.184325   -0.030587   -0.145901    0.017057
    0.943531    8.355876    8.242670    9.225328   -0.031351   -0.149086    0.017624
    0.962032    8.390304    8.274403    9.267012   -0.032116   -0.152065    0.018181
    0.980533    8.425231    8.306648    9.309236   -0.032876   -0.154779    0.018722
    0.999033    8.460545    8.339316    9.351860   -0.033625   -0.157167    0.019240
    1.017534    8.496137    8.372318    9.394746   -0.034359   -0.159168    0.019727
    1.036034    8.531900    8.405568    9.437755   -0.035070   -0.160719    0.020178
    1.054535    8.567728    8.438983    9.480752   -0.035755   -0.161756    0.020584
    1.073036    8.603517    8.472478    9.523602   -0.036407   -0.162212    0.020939
    1.091536    8.639163    8.505972    9.566168   -0.037021   -0.162019    0.021236
[...]
   55.224337    0.883698    0.883674    0.883605   -0.000080   -0.000026    0.000013
   55.242838    0.883785    0.883761    0.883692   -0.000080   -0.000026    0.000013
   55.261339    0.883872    0.883848    0.883779   -0.000080   -0.000026    0.000013
   55.279839    0.883959    0.883935    0.883866   -0.000080   -0.000026    0.000013
   55.298340    0.884045    0.884021    0.883952   -0.000080   -0.000026    0.000013
   55.316841    0.884132    0.884108    0.884039   -0.000080   -0.000026    0.000013
   55.335341    0.884218    0.884194    0.884126   -0.000080   -0.000026    0.000013
   55.353842    0.884305    0.884280    0.884212   -0.000080   -0.000026    0.000013
   55.372342    0.884391    0.884367    0.884298   -0.000080   -0.000026    0.000013
   55.390843    0.884477    0.884453    0.884385   -0.000080   -0.000026    0.000013
   55.409344    0.884563    0.884539    0.884471   -0.000080   -0.000026    0.000013
   55.427844    0.884649    0.884625    0.884557   -0.000080   -0.000026    0.000013
   55.446345    0.884734    0.884710    0.884643   -0.000080   -0.000026    0.000013
   55.464845    0.884820    0.884796    0.884729   -0.000080   -0.000026    0.000013
   55.483346    0.884906    0.884882    0.884814   -0.000080   -0.000026    0.000013

  frequency dependent IMAGINARY DIELECTRIC FUNCTION (independent particle, no local field effects) current-current
     E(ev)      X         Y         Z        XY        YZ        ZX
    0.000000   69.096784   68.455609   77.051849   -0.578171   -0.543843    0.277434
    0.018501   69.096784   68.455609   77.051849   -0.578171   -0.543843    0.277434
    0.037001   34.554220   34.233337   38.533270   -0.289302   -0.272074    0.138880
    0.055502   23.042628   22.828377   25.697016   -0.193109   -0.181553    0.092767
    0.074002   17.288788   17.127753   19.281353   -0.145086   -0.136343    0.069766
    0.092503   13.838055   13.708869   15.433937   -0.116331   -0.109260    0.056010
    0.111004   11.538886   11.430865   12.870656   -0.097211   -0.091239    0.046877
    0.129504    9.897762    9.804800   11.041179   -0.083597   -0.078398    0.040386
    0.148005    8.667927    8.586205    9.670341   -0.073426   -0.068795    0.035548
    0.166506    7.712294    7.639267    8.605276   -0.065550   -0.061352    0.031811
    0.185006    6.948613    6.882499    7.754266   -0.059282   -0.055420    0.028847
    0.203507    6.324545    6.264045    7.058946   -0.054185   -0.050589    0.026446
    0.222007    5.805198    5.749337    6.480408   -0.049965   -0.046583    0.024466
    0.240508    5.366417    5.314445    5.991718   -0.046423   -0.043214    0.022813
    0.259009    4.990951    4.942276    5.573638   -0.043413   -0.040346    0.021417
    0.277509    4.666149    4.620296    5.212062   -0.040831   -0.037879    0.020227
    0.296010    4.382524    4.339108    4.896413   -0.038597   -0.035739    0.019206
    0.314510    4.132824    4.091525    4.618603   -0.036650   -0.033870    0.018325
    0.333011    3.911408    3.871958    4.372343   -0.034945   -0.032226    0.017561
    0.351512    3.713826    3.675997    4.152672   -0.033444   -0.030774    0.016898
    0.370012    3.536518    3.500115    3.955620   -0.032119   -0.029486    0.016321
    0.388513    3.376604    3.341459    3.777977   -0.030944   -0.028340    0.015819
    0.407014    3.231728    3.197694    3.617118   -0.029902   -0.027318    0.015384
    0.425514    3.099949    3.066894    3.470877   -0.028977   -0.026405    0.015008
    0.444015    2.979646    2.947456    3.337451   -0.028156   -0.025589    0.014686
    0.462515    2.869464    2.838034    3.215328   -0.027427   -0.024860    0.014412
    0.481016    2.768257    2.737491    3.103231   -0.026784   -0.024211    0.014183
    0.499517    2.675050    2.644861    3.000077   -0.026218   -0.023633    0.013996
    0.518017    2.589011    2.559320    2.904938   -0.025724   -0.023122    0.013849
    0.536518    2.509425    2.480156    2.817021   -0.025296   -0.022674    0.013740
    0.555018    2.435677    2.406758    2.735639   -0.024932   -0.022285    0.013667
    0.573519    2.367233    2.338596    2.660203   -0.024629   -0.021953    0.013632
    0.592020    2.303631    2.275211    2.590198   -0.024384   -0.021676    0.013632
    0.610520    2.244471    2.216202    2.525182   -0.024196   -0.021453    0.013670
    0.629021    2.189403    2.161220    2.464769   -0.024066   -0.021285    0.013746
    0.647522    2.138126    2.109964    2.408628   -0.023993   -0.021173    0.013862
    0.666022    2.090379    2.062171    2.356474   -0.023980   -0.021119    0.014020
    0.684523    2.045938    2.017615    2.308063   -0.024028   -0.021126    0.014224
    0.703023    2.004617    1.976104    2.263194   -0.024143   -0.021198    0.014479
    0.721524    1.966258    1.937476    2.221701   -0.024328   -0.021344    0.014789
    0.740025    1.930738    1.901600    2.183459   -0.024591   -0.021569    0.015162
    0.758525    1.897964    1.868373    2.148374   -0.024940   -0.021885    0.015607
    0.777026    1.867872    1.837722    2.116393   -0.025385   -0.022304    0.016133
    0.795526    1.840427    1.809597    2.087491   -0.025939   -0.022839    0.016753
    0.814027    1.815615    1.783969    2.061672   -0.026615   -0.023504    0.017480
    0.832528    1.793437    1.760822    2.038952   -0.027424   -0.024311    0.018327
    0.851028    1.773888    1.740143    2.019344   -0.028378   -0.025265    0.019305
    0.869529    1.756954    1.721904    2.002839   -0.029483   -0.026368    0.020422
    0.888030    1.742592    1.706060    1.989398   -0.030742   -0.027613    0.021681
    0.906530    1.730732    1.692543    1.978942   -0.032152   -0.028989    0.023081
    0.925031    1.721281    1.681267    1.971366   -0.033708   -0.030482    0.024618
    0.943531    1.714130    1.672129    1.966539   -0.035403   -0.032079    0.026284
    0.962032    1.709156    1.665019    1.964315   -0.037226   -0.033763    0.028070
    0.980533    1.706236    1.659823    1.964545   -0.039167   -0.035521    0.029964
    0.999033    1.705245    1.656429    1.967077   -0.041216   -0.037337    0.031956
    1.017534    1.706063    1.654725    1.971764   -0.043361   -0.039198    0.034033
    1.036034    1.708576    1.654609    1.978465   -0.045594   -0.041090    0.036185
    1.054535    1.712678    1.655982    1.987050   -0.047903   -0.043001    0.038401
    1.073036    1.718273    1.658757    1.997397   -0.050281   -0.044917    0.040668
    1.091536    1.725274    1.662852    2.009396   -0.052719   -0.046825    0.042978
[...]
   55.224337    0.000049    0.000049    0.000049    0.000000    0.000000    0.000000
   55.242838    0.000049    0.000049    0.000049    0.000000    0.000000    0.000000
   55.261339    0.000049    0.000049    0.000049    0.000000    0.000000    0.000000
   55.279839    0.000048    0.000048    0.000049    0.000000    0.000000    0.000000
   55.298340    0.000048    0.000048    0.000049    0.000000    0.000000    0.000000
   55.316841    0.000048    0.000048    0.000049    0.000000    0.000000    0.000000
   55.335341    0.000048    0.000048    0.000049    0.000000    0.000000    0.000000
   55.353842    0.000048    0.000048    0.000049    0.000000    0.000000    0.000000
   55.372342    0.000048    0.000048    0.000048    0.000000    0.000000    0.000000
   55.390843    0.000048    0.000048    0.000048    0.000000    0.000000    0.000000
   55.409344    0.000048    0.000048    0.000048    0.000000    0.000000    0.000000
   55.427844    0.000048    0.000048    0.000048    0.000000    0.000000    0.000000
   55.446345    0.000047    0.000047    0.000048    0.000000    0.000000    0.000000
   55.464845    0.000047    0.000047    0.000048    0.000000    0.000000    0.000000
   55.483346    0.000047    0.000047    0.000048    0.000000    0.000000    0.000000

  frequency dependent      REAL DIELECTRIC FUNCTION (independent particle, no local field effects) current-current
     E(ev)        X           Y           Z          XY          YZ          ZX
    0.000000    7.370389    7.312162    8.100716   -0.052688   -0.049747    0.025067
    0.018501    7.370389    7.312162    8.100716   -0.052688   -0.049747    0.025067
    0.037001    7.370915    7.312662    8.101378   -0.052707   -0.049760    0.025081
    0.055502    7.371791    7.313495    8.102482   -0.052739   -0.049782    0.025104
    0.074002    7.373020    7.314662    8.104030   -0.052784   -0.049813    0.025137
    0.092503    7.374601    7.316165    8.106022   -0.052841   -0.049853    0.025180
    0.111004    7.376537    7.318005    8.108461   -0.052911   -0.049903    0.025232
    0.129504    7.378829    7.320183    8.111349   -0.052994   -0.049961    0.025295
    0.148005    7.381480    7.322701    8.114689   -0.053091   -0.050029    0.025367
    0.166506    7.384491    7.325562    8.118484   -0.053201   -0.050106    0.025449
    0.185006    7.387867    7.328768    8.122738   -0.053325   -0.050193    0.025541
    0.203507    7.391610    7.332323    8.127455   -0.053462   -0.050290    0.025644
    0.222007    7.395724    7.336230    8.132640   -0.053614   -0.050396    0.025758
    0.240508    7.400214    7.340492    8.138298   -0.053781   -0.050514    0.025883
    0.259009    7.405083    7.345113    8.144435   -0.053962   -0.050641    0.026019
    0.277509    7.410337    7.350099    8.151058   -0.054158   -0.050780    0.026166
    0.296010    7.415981    7.355454    8.158173   -0.054370   -0.050929    0.026326
    0.314510    7.422021    7.361183    8.165788   -0.054599   -0.051091    0.026499
    0.333011    7.428464    7.367292    8.173912   -0.054844   -0.051264    0.026684
    0.351512    7.435317    7.373789    8.182553   -0.055106   -0.051450    0.026882
    0.370012    7.442587    7.380678    8.191722   -0.055386   -0.051649    0.027095
    0.388513    7.450283    7.387969    8.201429   -0.055685   -0.051861    0.027322
    0.407014    7.458415    7.395670    8.211685   -0.056003   -0.052087    0.027564
    0.425514    7.466990    7.403788    8.222503   -0.056341   -0.052328    0.027822
    0.444015    7.476021    7.412333    8.233897   -0.056700   -0.052585    0.028097
    0.462515    7.485518    7.421316    8.245881   -0.057081   -0.052858    0.028389
    0.481016    7.495494    7.430748    8.258470   -0.057485   -0.053148    0.028699
    0.499517    7.505962    7.440640    8.271682   -0.057913   -0.053456    0.029030
    0.518017    7.516936    7.451005    8.285534   -0.058366   -0.053783    0.029380
    0.536518    7.528431    7.461857    8.300047   -0.058846   -0.054130    0.029752
    0.555018    7.540465    7.473210    8.315242   -0.059354   -0.054499    0.030148
    0.573519    7.553054    7.485081    8.331141   -0.059892   -0.054891    0.030568
    0.592020    7.566220    7.497488    8.347769   -0.060462   -0.055307    0.031014
    0.610520    7.579981    7.510447    8.365154   -0.061065   -0.055750    0.031487
    0.629021    7.594361    7.523980    8.383322   -0.061703   -0.056219    0.031991
    0.647522    7.609384    7.538107    8.402305   -0.062380   -0.056719    0.032526
    0.666022    7.625073    7.552850    8.422135   -0.063096   -0.057249    0.033094
    0.684523    7.641457    7.568233    8.442844   -0.063854   -0.057813    0.033698
    0.703023    7.658560    7.584280    8.464467   -0.064657   -0.058411    0.034340
    0.721524    7.676410    7.601014    8.487037   -0.065506   -0.059045    0.035021
    0.740025    7.695029    7.618457    8.510583   -0.066404   -0.059715    0.035744
    0.758525    7.714438    7.636624    8.535128   -0.067351   -0.060419    0.036509
    0.777026    7.734643    7.655525    8.560683   -0.068346   -0.061154    0.037314
    0.795526    7.755638    7.675155    8.587235   -0.069385   -0.061911    0.038158
    0.814027    7.777392    7.695490    8.614745   -0.070462   -0.062677    0.039033
    0.832528    7.799844    7.716478    8.643133   -0.071566   -0.063436    0.039930
    0.851028    7.822901    7.738043    8.672279   -0.072681   -0.064163    0.040833
    0.869529    7.846444    7.760086    8.702030   -0.073790   -0.064834    0.041726
    0.888030    7.870337    7.782493    8.732214   -0.074873   -0.065427    0.042589
    0.906530    7.894444    7.805147    8.762658   -0.075912   -0.065919    0.043401
    0.925031    7.918637    7.827941    8.793198   -0.076888   -0.066295    0.044146
    0.943531    7.942805    7.850780    8.823691   -0.077787   -0.066541    0.044806
    0.962032    7.966856    7.873584    8.854020   -0.078597   -0.066646    0.045367
    0.980533    7.990720    7.896293    8.884093   -0.079306   -0.066602    0.045817
    0.999033    8.014343    7.918860    8.913839   -0.079906   -0.066404    0.046148
    1.017534    8.037689    7.941257    8.943211   -0.080392   -0.066044    0.046350
    1.036034    8.060738    7.963465    8.972181   -0.080758   -0.065520    0.046419
    1.054535    8.083481    7.985478    9.000737   -0.081001   -0.064826    0.046348
    1.073036    8.105922    8.007300    9.028880   -0.081118   -0.063958    0.046133
    1.091536    8.128074    8.028944    9.056623   -0.081108   -0.062914    0.045772
[...]
   55.224337    0.884383    0.884359    0.884038    0.000066   -0.000014   -0.000012
   55.242838    0.884469    0.884445    0.884124    0.000066   -0.000014   -0.000012
   55.261339    0.884556    0.884531    0.884211    0.000066   -0.000014   -0.000012
   55.279839    0.884642    0.884618    0.884298    0.000066   -0.000013   -0.000012
   55.298340    0.884728    0.884704    0.884384    0.000066   -0.000013   -0.000012
   55.316841    0.884814    0.884790    0.884470    0.000066   -0.000013   -0.000012
   55.335341    0.884900    0.884876    0.884557    0.000066   -0.000013   -0.000012
   55.353842    0.884986    0.884962    0.884643    0.000066   -0.000013   -0.000012
   55.372342    0.885071    0.885047    0.884729    0.000066   -0.000013   -0.000012
   55.390843    0.885157    0.885133    0.884815    0.000066   -0.000013   -0.000012
   55.409344    0.885243    0.885218    0.884901    0.000066   -0.000013   -0.000012
   55.427844    0.885328    0.885304    0.884986    0.000066   -0.000013   -0.000012
   55.446345    0.885413    0.885389    0.885072    0.000066   -0.000013   -0.000012
   55.464845    0.885498    0.885474    0.885158    0.000066   -0.000013   -0.000012
   55.483346    0.885584    0.885560    0.885243    0.000066   -0.000013   -0.000012

 The outermost node in the dielectric function lies at epsilon=  17.8

 total charge

# of ion       s       p       d       tot
    1        0.407   0.277   9.596  10.280
    2        0.407   0.277   9.596  10.280
    3        0.336   0.318   9.367  10.021
    4        0.331   0.320   9.366  10.017
    5        0.336   0.318   9.367  10.021
    6        0.331   0.320   9.366  10.017
    7        1.115   1.057   0.121   2.293
    8        1.115   1.057   0.121   2.293
    9        1.461   2.396   0.041   3.897
   10        1.461   2.396   0.041   3.897
   11        1.462   2.396   0.042   3.899
   12        1.462   2.396   0.042   3.899
   13        1.465   2.387   0.038   3.890
   14        1.465   2.387   0.038   3.890
   15        1.322   2.377   0.000   3.699
   16        1.322   2.377   0.000   3.699
tot         15.798  23.054  57.141  95.994

 BZINTS: Fermi energy:    2.410190;  124.000000 electrons
         Band energy:-0.407833E+03;  BLOECHL correction:   -0.000000