 vasp.6.1.0 28Jan20 (build Jan 11 2021 12:12:08) complex

 executed on             LinuxIFC date 2021.03.19  21:16:10

 INCAR:
 POTCAR:    PAW_PBE Cd 06Sep2000
 POTCAR:    PAW_PBE Cu 22Jun2005
 POTCAR:    PAW_PBE Ge 05Jan2001
 POTCAR:    PAW_PBE S 06Sep2000
|           W    W    AA    RRRRR   N    N  II  N    N   GGGG   !!!           |
|           W    W   A  A   R    R  NN   N  II  NN   N  G    G  !!!           |
|           W    W  A    A  R    R  N N  N  II  N N  N  G       !!!           |
|           W WW W  AAAAAA  RRRRR   N  N N  II  N  N N  G  GGG   !            |
|           WW  WW  A    A  R   R   N   NN  II  N   NN  G    G                |
|           W    W  A    A  R    R  N    N  II  N    N   GGGG   !!!           |
|     For optimal performance we recommend to set                             |
|       NCORE = 4 - approx SQRT(number of cores).                             |
|     This setting can greatly improve the performance of VASP for DFT.       |
|     The default, NCORE=1 might be grossly inefficient on modern             |
|     multi-core architectures or massively parallel machines. Do your        |
|     own testing!!!!                                                         |
|     Unfortunately you need to use the default for GW and RPA                |
|     calculations (for HF NCORE is supported but not extensively tested      |
|     yet).                                                                   |

 POTCAR:    PAW_PBE Cd 06Sep2000
   VRHFIN =Cd : s2 d10

   TITEL  = PAW_PBE Cd 06Sep2000
   POMASS =  112.411; ZVAL   =   12.000    mass and valenz
   ENMAX  =  274.336; ENMIN  =  205.752 eV

 POTCAR:    PAW_PBE Cu 22Jun2005
   VRHFIN =Cu: d10 p1

   TITEL  = PAW_PBE Cu 22Jun2005
   POMASS =   63.546; ZVAL   =   11.000    mass and valenz
   ENMAX  =  295.446; ENMIN  =  221.585 eV

 POTCAR:    PAW_PBE Ge 05Jan2001
   VRHFIN =Ge: s2p2

   TITEL  = PAW_PBE Ge 05Jan2001
   POMASS =   72.610; ZVAL   =    4.000    mass and valenz
   ENMAX  =  173.807; ENMIN  =  130.355 eV

 POTCAR:    PAW_PBE S 06Sep2000
   VRHFIN =S : s2p4

   TITEL  = PAW_PBE S 06Sep2000
   POMASS =   32.066; ZVAL   =    6.000    mass and valenz
   ENMAX  =  258.689; ENMIN  =  194.016 eV

  PAW_PBE Cd 06Sep2000                  :
  PAW_PBE Cu 22Jun2005                  :
  PAW_PBE Ge 05Jan2001                  :
  PAW_PBE S 06Sep2000                   :

 POSCAR: cd2 cu4 ge2 se8
  positions in direct lattice
  velocities in cartesian coordinates
 exchange correlation table for  LEXCH =        8
   RHO(1)=    0.500       N(1)  =     2000
   RHO(2)=  100.500       N(2)  =     4000

 ion  position               nearest neighbor table
   1  0.000  0.000  0.000-  14 2.57  12 2.57   9 2.57  15 2.57
   2  0.500  0.500  0.500-  16 2.57  13 2.57  10 2.57  11 2.57
   3  0.000  0.500  0.250-   9 2.32  12 2.32  10 2.32  11 2.32
   4  0.500  0.000  0.750-  16 2.32  15 2.32  13 2.32  14 2.32
   5  0.500  0.000  0.250-  12 2.32   9 2.32  11 2.32  10 2.32
   6  0.000  0.500  0.750-  13 2.32  14 2.32  15 2.32  16 2.32
   7  0.000  0.000  0.500-  10 2.29  13 2.29  11 2.29  16 2.29
   8  0.500  0.500  0.000-  15 2.29  12 2.29   9 2.29  14 2.29
   9  0.728  0.272  0.135-   8 2.29   3 2.32   5 2.32   1 2.57
  10  0.228  0.228  0.366-   7 2.29   3 2.32   5 2.32   2 2.57
  11  0.772  0.772  0.366-   7 2.29   5 2.32   3 2.32   2 2.57
  12  0.272  0.728  0.135-   8 2.29   5 2.32   3 2.32   1 2.57
  13  0.228  0.772  0.635-   7 2.29   6 2.32   4 2.32   2 2.57
  14  0.728  0.728  0.866-   8 2.29   6 2.32   4 2.32   1 2.57
  15  0.272  0.272  0.866-   8 2.29   4 2.32   6 2.32   1 2.57
  16  0.772  0.228  0.635-   7 2.29   4 2.32   6 2.32   2 2.57

  LATTYP: Found a base centered monoclinic cell.
 ALAT       =    48.6528509360
 B/A-ratio  =     0.1612982656
 C/A-ratio  =     0.2718130988
 COS(beta)  =    -0.9915366011

  Lattice vectors:

 A1 = (   5.5474265409, -11.0971167858,  21.2896995479)
 A2 = (  11.0970394993,  -5.5485184916,  21.2894559234)
 A3 = (  -5.5482618960,   5.5487923223, -10.6449341305)

Analysis of symmetry for initial positions (statically):
 Subroutine PRICEL returns:
 Original cell was already a primitive cell.

 Routine SETGRP: Setting up the symmetry group for a
 base centered monoclinic supercell.

 Subroutine GETGRP returns: Found  1 space group operations
 (whereof  1 operations were pure point group operations)
 out of a pool of  4 trial point group operations.

The static configuration has the point symmetry C_1 .

Analysis of symmetry for dynamics (positions and initial velocities):
 Subroutine PRICEL returns:
 Original cell was already a primitive cell.

 Routine SETGRP: Setting up the symmetry group for a
 base centered monoclinic supercell.

 Subroutine GETGRP returns: Found  1 space group operations
 (whereof  1 operations were pure point group operations)
 out of a pool of  4 trial point group operations.

The dynamic configuration has the point symmetry C_1 .

 Subroutine INISYM returns: Found  1 space group operations
 (whereof  1 operations are pure point group operations),
 and found     1 'primitive' translations

                                     Primitive cell

  volume of cell :     327.7642

  direct lattice vectors                    reciprocal lattice vectors
     5.549097251 -0.000467859  0.000168713     0.180209491 -0.000016748  0.000005413
     0.000515707  5.549066153 -0.000412338     0.000015194  0.180210500 -0.000012556
    -0.000319648  0.000741689 10.644353080    -0.000002856  0.000006981  0.093946526

  length of vectors
     5.549097273  5.549066192 10.644353111     0.180209492  0.180210501  0.093946526

  position of ions in fractional coordinates (direct lattice)
     0.000160440  0.000083440  0.000202622
     0.500135010  0.500061441  0.500235836
     0.000137564  0.500078891  0.250194499
     0.500213236  0.000230146  0.750201328
     0.500161158  0.000068080  0.250207938
     0.000225781  0.500233583  0.750203521
     0.000155037  0.000099218  0.500204482
     0.500160828  0.500103995  0.000215765
     0.728343543  0.271877809  0.134826633
     0.228349737  0.228288304  0.365589800
     0.771949595  0.771875053  0.365603636
     0.271947593  0.728285853  0.134831313
     0.228411409  0.771980772  0.634828922
     0.728322996  0.728318701  0.865585785
     0.271946521  0.271941204  0.865599633
     0.772039550  0.228353509  0.634838224

  ion indices of the primitive-cell ions
   primitive index   ion index
                 1           1
                 2           2
                 3           3
                 4           4
                 5           5
                 6           6
                 7           7
                 8           8
                 9           9
                10          10
                11          11
                12          12
                13          13
                14          14
                15          15
                16          16

 KPOINTS: elec

Automatic generation of k-mesh.
Space group operators:
 irot       det(A)        alpha          n_x          n_y          n_z        tau_x        tau_y        tau_z
    1     1.000000     0.000000     1.000000     0.000000     0.000000     0.000000     0.000000     0.000000
 TETIRR: Found    540 inequivalent tetrahedra from     1080

 Subroutine IBZKPT returns following result:

 Found     92 irreducible k-points:

 Following reciprocal coordinates:
            Coordinates               Weight
  0.000000  0.000000  0.000000      1.000000
  0.166667  0.000000 -0.000000      2.000000
  0.333333  0.000000  0.000000      2.000000
  0.500000  0.000000  0.000000      1.000000
  0.000000  0.166667 -0.000000      2.000000
  0.166667  0.166667  0.000000      2.000000
  0.333333  0.166667 -0.000000      2.000000
  0.500000  0.166667 -0.000000      2.000000
 -0.333333  0.166667  0.000000      2.000000
 -0.166667  0.166667 -0.000000      2.000000
  0.000000  0.333333  0.000000      2.000000
  0.166667  0.333333 -0.000000      2.000000
  0.333333  0.333333 -0.000000      2.000000
  0.500000  0.333333  0.000000      2.000000
 -0.333333  0.333333 -0.000000      2.000000
 -0.166667  0.333333 -0.000000      2.000000
  0.000000  0.500000 -0.000000      1.000000
  0.166667  0.500000 -0.000000      2.000000
  0.333333  0.500000  0.000000      2.000000
  0.500000  0.500000 -0.000000      1.000000
  0.000000 -0.000000  0.200000      2.000000
  0.166667  0.000000  0.200000      2.000000
  0.333333  0.000000  0.200000      2.000000
  0.500000 -0.000000  0.200000      2.000000
 -0.333333 -0.000000  0.200000      2.000000
 -0.166667 -0.000000  0.200000      2.000000
  0.000000  0.166667  0.200000      2.000000
  0.166667  0.166667  0.200000      2.000000
  0.333333  0.166667  0.200000      2.000000
  0.500000  0.166667  0.200000      2.000000
 -0.333333  0.166667  0.200000      2.000000
 -0.166667  0.166667  0.200000      2.000000
  0.000000  0.333333  0.200000      2.000000
  0.166667  0.333333  0.200000      2.000000
  0.333333  0.333333  0.200000      2.000000
  0.500000  0.333333  0.200000      2.000000
 -0.333333  0.333333  0.200000      2.000000
 -0.166667  0.333333  0.200000      2.000000
  0.000000  0.500000  0.200000      2.000000
  0.166667  0.500000  0.200000      2.000000
  0.333333  0.500000  0.200000      2.000000
  0.500000  0.500000  0.200000      2.000000
 -0.333333  0.500000  0.200000      2.000000
 -0.166667  0.500000  0.200000      2.000000
 -0.000000 -0.333333  0.200000      2.000000
  0.166667 -0.333333  0.200000      2.000000
  0.333333 -0.333333  0.200000      2.000000
  0.500000 -0.333333  0.200000      2.000000
 -0.333333 -0.333333  0.200000      2.000000
 -0.166667 -0.333333  0.200000      2.000000
 -0.000000 -0.166667  0.200000      2.000000
  0.166667 -0.166667  0.200000      2.000000
  0.333333 -0.166667  0.200000      2.000000
  0.500000 -0.166667  0.200000      2.000000
 -0.333333 -0.166667  0.200000      2.000000
 -0.166667 -0.166667  0.200000      2.000000
  0.000000 -0.000000  0.400000      2.000000
  0.166667  0.000000  0.400000      2.000000
  0.333333  0.000000  0.400000      2.000000
  0.500000  0.000000  0.400000      2.000000
[...]
  0.500000  0.500000  0.400000      2.000000
 -0.333333  0.500000  0.400000      2.000000
 -0.166667  0.500000  0.400000      2.000000
  0.000000 -0.333333  0.400000      2.000000
  0.166667 -0.333333  0.400000      2.000000
  0.333333 -0.333333  0.400000      2.000000
  0.500000 -0.333333  0.400000      2.000000
 -0.333333 -0.333333  0.400000      2.000000
 -0.166667 -0.333333  0.400000      2.000000
 -0.000000 -0.166667  0.400000      2.000000
  0.166667 -0.166667  0.400000      2.000000
  0.333333 -0.166667  0.400000      2.000000
  0.500000 -0.166667  0.400000      2.000000
 -0.333333 -0.166667  0.400000      2.000000
 -0.166667 -0.166667  0.400000      2.000000

 Following cartesian coordinates:
            Coordinates               Weight
  0.000000  0.000000  0.000000      1.000000
  0.030035 -0.000003  0.000001      2.000000
  0.060070 -0.000006  0.000002      2.000000
  0.090105 -0.000008  0.000003      1.000000
  0.000003  0.030035 -0.000002      2.000000
  0.030037  0.030032 -0.000001      2.000000
[...]
    0.853668    6.546028    6.559955    7.130291    0.003977   -0.015747   -0.015932
    0.873069    6.555514    6.569679    7.143001    0.003984   -0.015782   -0.015968
    0.892471    6.565298    6.579714    7.156129    0.003992   -0.015817   -0.016004
    0.911872    6.575388    6.590068    7.169688    0.004000   -0.015851   -0.016039
    0.931274    6.585793    6.600750    7.183691    0.004009   -0.015885   -0.016075
    0.950675    6.596520    6.611770    7.198151    0.004019   -0.015919   -0.016110
    0.970077    6.607579    6.623137    7.213083    0.004029   -0.015952   -0.016144
    0.989478    6.618979    6.634863    7.228504    0.004040   -0.015984   -0.016178
    1.008880    6.630731    6.646958    7.244429    0.004053   -0.016015   -0.016210
    1.028282    6.642846    6.659435    7.260878    0.004066   -0.016045   -0.016241
    1.047683    6.655334    6.672308    7.277869    0.004081   -0.016072   -0.016271
    1.067085    6.668210    6.685590    7.295424    0.004097   -0.016098   -0.016298
    1.086486    6.681486    6.699296    7.313565    0.004114   -0.016122   -0.016324
    1.105888    6.695176    6.713443    7.332316    0.004133   -0.016143   -0.016347
    1.125289    6.709296    6.728048    7.351704    0.004154   -0.016160   -0.016366
    1.144691    6.723861    6.743129    7.371758    0.004177   -0.016174   -0.016383
[...]
   57.913592    0.883887    0.883888    0.883694   -0.000081    0.000046    0.000050
   57.932994    0.883974    0.883976    0.883782   -0.000081    0.000046    0.000050
   57.952395    0.884061    0.884063    0.883870   -0.000081    0.000046    0.000050
   57.971797    0.884148    0.884150    0.883957   -0.000081    0.000046    0.000050
   57.991198    0.884235    0.884237    0.884044   -0.000081    0.000046    0.000050
   58.010600    0.884322    0.884324    0.884132   -0.000081    0.000046    0.000050
   58.030001    0.884409    0.884411    0.884219   -0.000081    0.000046    0.000050
   58.049403    0.884496    0.884497    0.884306   -0.000081    0.000046    0.000050
   58.068805    0.884582    0.884584    0.884392   -0.000081    0.000046    0.000050
   58.088206    0.884669    0.884670    0.884479   -0.000081    0.000046    0.000050
   58.107608    0.884755    0.884756    0.884566   -0.000081    0.000046    0.000050
   58.127009    0.884841    0.884843    0.884652   -0.000080    0.000046    0.000050
   58.146411    0.884927    0.884929    0.884739   -0.000080    0.000046    0.000049
   58.165812    0.885013    0.885015    0.884825   -0.000080    0.000046    0.000049
   58.185214    0.885099    0.885101    0.884911   -0.000080    0.000046    0.000049

  frequency dependent IMAGINARY DIELECTRIC FUNCTION (independent particle, no local field effects) current-current
     E(ev)      X         Y         Z        XY        YZ        ZX
    0.000000   54.407800   54.545014   59.965375   -0.130393   -0.076617   -0.077999
    0.019402   54.407800   54.545014   59.965375   -0.130393   -0.076617   -0.077999
    0.038803   27.206578   27.275230   29.986205   -0.065220   -0.038306   -0.038998
    0.058205   18.140696   18.186514   19.994714   -0.043507   -0.025535   -0.025996
    0.077606   13.608650   13.643066   15.000145   -0.032658   -0.019149   -0.019495
    0.097008   10.890141   10.917727   12.004347   -0.026155   -0.015316   -0.015593
    0.116409    9.078401    9.101445   10.007938   -0.021825   -0.012761   -0.012992
    0.135811    7.784818    7.804626    8.582611   -0.018737   -0.010935   -0.011133
    0.155212    6.815084    6.832473    7.514212   -0.016425   -0.009565   -0.009738
    0.174614    6.061252    6.076767    6.683770   -0.014631   -0.008499   -0.008653
    0.194015    5.458554    5.472576    6.019901   -0.013198   -0.007646   -0.007785
    0.213417    4.965773    4.978579    5.477178   -0.012030   -0.006947   -0.007074
    0.232818    4.555433    4.567231    5.025318   -0.011059   -0.006365   -0.006481
    0.252220    4.208510    4.219462    4.643357   -0.010240   -0.005871   -0.005978
    0.271622    3.911418    3.921649    4.316320   -0.009540   -0.005448   -0.005547
    0.291023    3.654194    3.663803    4.033225   -0.008936   -0.005081   -0.005173
    0.310425    3.429363    3.438435    3.785837   -0.008411   -0.004759   -0.004846
    0.329826    3.231213    3.239814    3.567858   -0.007949   -0.004474   -0.004556
    0.349228    3.055298    3.063486    3.374391   -0.007540   -0.004220   -0.004298
    0.368629    2.898111    2.905933    3.201569   -0.007177   -0.003993   -0.004066
    0.388031    2.756845    2.764343    3.046299   -0.006852   -0.003787   -0.003857
    0.407432    2.629229    2.636436    2.906078   -0.006560   -0.003601   -0.003668
    0.426834    2.513403    2.520351    2.778858   -0.006297   -0.003431   -0.003495
    0.446235    2.407833    2.414548    2.662948   -0.006059   -0.003275   -0.003336
    0.465637    2.311239    2.317745    2.556937   -0.005842   -0.003131   -0.003190
    0.485038    2.222548    2.228866    2.459643   -0.005644   -0.002998   -0.003054
    0.504440    2.140850    2.146998    2.370063   -0.005464   -0.002874   -0.002928
    0.523842    2.065371    2.071366    2.287347   -0.005299   -0.002759   -0.002811
    0.543243    1.995449    2.001306    2.210762   -0.005147   -0.002650   -0.002701
    0.562645    1.930511    1.936244    2.139680   -0.005008   -0.002549   -0.002598
    0.582046    1.870063    1.875685    2.073555   -0.004880   -0.002453   -0.002501
    0.601448    1.813673    1.819195    2.011914   -0.004763   -0.002362   -0.002408
    0.620849    1.760965    1.766397    1.954340   -0.004654   -0.002275   -0.002321
    0.640251    1.711607    1.716960    1.900470   -0.004554   -0.002193   -0.002237
    0.659652    1.665307    1.670591    1.849982   -0.004462   -0.002114   -0.002157
    0.679054    1.621808    1.627031    1.802593   -0.004378   -0.002038   -0.002080
    0.698455    1.580879    1.586050    1.758051   -0.004300   -0.001965   -0.002006
    0.717857    1.542317    1.547443    1.716132   -0.004228   -0.001894   -0.001934
    0.737258    1.505939    1.511029    1.676634   -0.004163   -0.001825   -0.001864
    0.756660    1.471581    1.476642    1.639379   -0.004103   -0.001758   -0.001796
    0.776062    1.439097    1.444136    1.604206   -0.004048   -0.001692   -0.001729
    0.795463    1.408355    1.413379    1.570970   -0.003999   -0.001627   -0.001664
    0.814865    1.379234    1.384250    1.539540   -0.003954   -0.001563   -0.001599
    0.834266    1.351627    1.356643    1.509800   -0.003914   -0.001499   -0.001535
    0.853668    1.325437    1.330459    1.481643   -0.003878   -0.001435   -0.001470
    0.873069    1.300574    1.305611    1.454972   -0.003847   -0.001372   -0.001406
    0.892471    1.276959    1.282017    1.429702   -0.003820   -0.001307   -0.001341
    0.911872    1.254518    1.259604    1.405752   -0.003797   -0.001242   -0.001276
    0.931274    1.233184    1.238307    1.383051   -0.003778   -0.001176   -0.001210
    0.950675    1.212898    1.218065    1.361536   -0.003763   -0.001109   -0.001142
    0.970077    1.193604    1.198823    1.341147   -0.003753   -0.001039   -0.001072
    0.989478    1.175251    1.180532    1.321832   -0.003746   -0.000968   -0.001000
    1.008880    1.157795    1.163147    1.303544   -0.003744   -0.000893   -0.000926
    1.028282    1.141194    1.146626    1.286241   -0.003746   -0.000816   -0.000848
    1.047683    1.125410    1.130934    1.269884   -0.003753   -0.000735   -0.000767
    1.067085    1.110411    1.116038    1.254443   -0.003764   -0.000649   -0.000682
    1.086486    1.096165    1.101907    1.239887   -0.003780   -0.000558   -0.000591
    1.105888    1.082647    1.088518    1.226193   -0.003800   -0.000462   -0.000495
    1.125289    1.069832    1.075848    1.213342   -0.003827   -0.000358   -0.000392
    1.144691    1.057701    1.063878    1.201319   -0.003858   -0.000247   -0.000281
[...]
   57.913592    0.000049    0.000049    0.000050   -0.000000    0.000000   -0.000000
   57.932994    0.000049    0.000049    0.000050   -0.000000    0.000000   -0.000000
   57.952395    0.000049    0.000049    0.000050   -0.000000    0.000000   -0.000000
   57.971797    0.000049    0.000049    0.000050   -0.000000    0.000000   -0.000000
   57.991198    0.000049    0.000049    0.000050   -0.000000    0.000000   -0.000000
   58.010600    0.000049    0.000049    0.000050   -0.000000    0.000000   -0.000000
   58.030001    0.000048    0.000048    0.000050   -0.000000    0.000000   -0.000000
   58.049403    0.000048    0.000048    0.000049   -0.000000    0.000000   -0.000000
   58.068805    0.000048    0.000048    0.000049   -0.000000    0.000000   -0.000000
   58.088206    0.000048    0.000048    0.000049   -0.000000    0.000000   -0.000000
   58.107608    0.000048    0.000048    0.000049   -0.000000    0.000000   -0.000000
   58.127009    0.000048    0.000048    0.000049   -0.000000    0.000000   -0.000000
   58.146411    0.000048    0.000048    0.000049   -0.000000    0.000000   -0.000000
   58.165812    0.000048    0.000048    0.000049   -0.000000    0.000000   -0.000000
   58.185214    0.000048    0.000048    0.000049   -0.000000    0.000000   -0.000000

  frequency dependent      REAL DIELECTRIC FUNCTION (independent particle, no local field effects) current-current
     E(ev)        X           Y           Z          XY          YZ          ZX
    0.000000    6.268669    6.281824    6.804876   -0.012566   -0.007440   -0.007574
    0.019402    6.268669    6.281824    6.804876   -0.012566   -0.007440   -0.007574
    0.038803    6.268926    6.282085    6.805213   -0.012568   -0.007440   -0.007574
    0.058205    6.269354    6.282521    6.805775   -0.012572   -0.007440   -0.007574
    0.077606    6.269955    6.283131    6.806563   -0.012577   -0.007439   -0.007573
    0.097008    6.270727    6.283916    6.807576   -0.012584   -0.007439   -0.007573
    0.116409    6.271672    6.284876    6.808816   -0.012593   -0.007438   -0.007572
    0.135811    6.272790    6.286012    6.810282   -0.012602   -0.007437   -0.007571
    0.155212    6.274081    6.287324    6.811977   -0.012614   -0.007437   -0.007571
    0.174614    6.275545    6.288813    6.813899   -0.012627   -0.007436   -0.007570
    0.194015    6.277185    6.290480    6.816051   -0.012641   -0.007434   -0.007568
    0.213417    6.278999    6.292325    6.818434   -0.012657   -0.007433   -0.007567
    0.232818    6.280990    6.294349    6.821049   -0.012675   -0.007431   -0.007566
    0.252220    6.283158    6.296553    6.823896   -0.012694   -0.007430   -0.007564
    0.271622    6.285504    6.298938    6.826979   -0.012715   -0.007428   -0.007562
    0.291023    6.288029    6.301505    6.830298   -0.012738   -0.007426   -0.007560
    0.310425    6.290734    6.304257    6.833855   -0.012762   -0.007423   -0.007558
    0.329826    6.293621    6.307193    6.837651   -0.012788   -0.007420   -0.007555
    0.349228    6.296691    6.310315    6.841690   -0.012816   -0.007417   -0.007552
    0.368629    6.299945    6.313625    6.845974   -0.012845   -0.007414   -0.007549
    0.388031    6.303386    6.317125    6.850503   -0.012876   -0.007410   -0.007545
    0.407432    6.307014    6.320817    6.855282   -0.012909   -0.007406   -0.007541
    0.426834    6.310832    6.324701    6.860313   -0.012944   -0.007401   -0.007536
    0.446235    6.314841    6.328781    6.865599   -0.012981   -0.007396   -0.007531
    0.465637    6.319044    6.333058    6.871142   -0.013020   -0.007391   -0.007526
    0.485038    6.323442    6.337535    6.876946   -0.013060   -0.007385   -0.007520
    0.504440    6.328038    6.342214    6.883014   -0.013103   -0.007378   -0.007513
    0.523842    6.332834    6.347097    6.889350   -0.013148   -0.007370   -0.007506
    0.543243    6.337833    6.352187    6.895958   -0.013195   -0.007362   -0.007498
    0.562645    6.343038    6.357488    6.902842   -0.013244   -0.007353   -0.007489
    0.582046    6.348450    6.363001    6.910005   -0.013295   -0.007343   -0.007479
    0.601448    6.354074    6.368731    6.917453   -0.013349   -0.007333   -0.007469
    0.620849    6.359913    6.374680    6.925191   -0.013405   -0.007321   -0.007457
    0.640251    6.365968    6.380852    6.933222   -0.013463   -0.007308   -0.007444
    0.659652    6.372246    6.387251    6.941553   -0.013524   -0.007294   -0.007431
    0.679054    6.378747    6.393880    6.950189   -0.013588   -0.007278   -0.007415
    0.698455    6.385478    6.400744    6.959137   -0.013654   -0.007262   -0.007399
    0.717857    6.392441    6.407847    6.968401   -0.013723   -0.007243   -0.007381
    0.737258    6.399642    6.415194    6.977990   -0.013795   -0.007224   -0.007361
    0.756660    6.407084    6.422789    6.987909   -0.013870   -0.007202   -0.007340
    0.776062    6.414772    6.430637    6.998167   -0.013948   -0.007178   -0.007316
    0.795463    6.422712    6.438745    7.008770   -0.014029   -0.007152   -0.007291
    0.814865    6.430908    6.447117    7.019728   -0.014113   -0.007124   -0.007263
    0.834266    6.439367    6.455760    7.031049   -0.014201   -0.007094   -0.007233
    0.853668    6.448094    6.464680    7.042743   -0.014293   -0.007061   -0.007200
    0.873069    6.457096    6.473884    7.054818   -0.014388   -0.007025   -0.007165
    0.892471    6.466379    6.483379    7.067286   -0.014488   -0.006985   -0.007126
    0.911872    6.475950    6.493173    7.080158   -0.014591   -0.006943   -0.007083
    0.931274    6.485818    6.503273    7.093445   -0.014699   -0.006896   -0.007037
    0.950675    6.495989    6.513689    7.107160   -0.014812   -0.006845   -0.006987
    0.970077    6.506472    6.524429    7.121317   -0.014929   -0.006790   -0.006933
    0.989478    6.517276    6.535504    7.135929   -0.015051   -0.006730   -0.006873
    1.008880    6.528410    6.546923    7.151012   -0.015179   -0.006665   -0.006809
    1.028282    6.539886    6.558697    7.166582   -0.015312   -0.006594   -0.006738
    1.047683    6.551713    6.570840    7.182657   -0.015451   -0.006516   -0.006661
    1.067085    6.563903    6.583362    7.199256   -0.015596   -0.006432   -0.006578
    1.086486    6.576469    6.596279    7.216398   -0.015748   -0.006340   -0.006486
    1.105888    6.589424    6.609604    7.234105   -0.015907   -0.006239   -0.006387
    1.125289    6.602781    6.623353    7.252401   -0.016074   -0.006129   -0.006278
    1.144691    6.616557    6.637543    7.271311   -0.016248   -0.006009   -0.006159
[...]
   57.913592    0.884373    0.884362    0.883948    0.000018    0.000027    0.000030
   57.932994    0.884460    0.884449    0.884035    0.000018    0.000027    0.000030
   57.952395    0.884547    0.884536    0.884122    0.000018    0.000027    0.000030
   57.971797    0.884634    0.884623    0.884210    0.000017    0.000027    0.000030
   57.991198    0.884720    0.884709    0.884297    0.000017    0.000027    0.000030
   58.010600    0.884807    0.884796    0.884384    0.000017    0.000027    0.000030
   58.030001    0.884893    0.884882    0.884471    0.000017    0.000027    0.000030
   58.049403    0.884980    0.884969    0.884557    0.000017    0.000027    0.000030
   58.068805    0.885066    0.885055    0.884644    0.000017    0.000027    0.000030
   58.088206    0.885152    0.885141    0.884731    0.000017    0.000027    0.000030
   58.107608    0.885238    0.885227    0.884817    0.000017    0.000027    0.000030
   58.127009    0.885324    0.885313    0.884904    0.000017    0.000027    0.000030
   58.146411    0.885410    0.885399    0.884990    0.000017    0.000027    0.000030
   58.165812    0.885495    0.885484    0.885076    0.000017    0.000027    0.000030
   58.185214    0.885581    0.885570    0.885162    0.000017    0.000027    0.000030

 The outermost node in the dielectric function lies at epsilon=  19.0

 total charge

# of ion       s       p       d       tot
    1        0.394   0.292   9.605  10.291
    2        0.394   0.292   9.605  10.291
    3        0.335   0.345   9.366  10.045
    4        0.335   0.345   9.366  10.045
    5        0.335   0.345   9.366  10.045
    6        0.335   0.345   9.366  10.045
    7        1.084   1.108   0.158   2.350
    8        1.084   1.108   0.158   2.350
    9        1.322   2.390   0.000   3.711
   10        1.322   2.390   0.000   3.711
   11        1.322   2.390   0.000   3.711
   12        1.322   2.390   0.000   3.711
   13        1.322   2.390   0.000   3.711
   14        1.322   2.390   0.000   3.711
   15        1.322   2.390   0.000   3.711
   16        1.322   2.390   0.000   3.711
tot         14.870  23.296  56.990  95.156

 BZINTS: Fermi energy:    3.090488;  124.000000 electrons
         Band energy:-0.329025E+03;  BLOECHL correction:   -0.000000