 vasp.6.1.0 28Jan20 (build Jan 13 2021 21:44:47) complex

 executed on             LinuxIFC date 2021.03.05  19:50:51

 INCAR:
 POTCAR:    PAW_PBE Cd 06Sep2000
 POTCAR:    PAW_PBE Cu 22Jun2005
 POTCAR:    PAW_PBE Ge 05Jan2001
 POTCAR:    PAW_PBE Se 06Sep2000
|           W    W    AA    RRRRR   N    N  II  N    N   GGGG   !!!           |
|           W    W   A  A   R    R  NN   N  II  NN   N  G    G  !!!           |
|           W    W  A    A  R    R  N N  N  II  N N  N  G       !!!           |
|           W WW W  AAAAAA  RRRRR   N  N N  II  N  N N  G  GGG   !            |
|           WW  WW  A    A  R   R   N   NN  II  N   NN  G    G                |
|           W    W  A    A  R    R  N    N  II  N    N   GGGG   !!!           |
|     For optimal performance we recommend to set                             |
|       NCORE = 4 - approx SQRT(number of cores).                             |
|     This setting can greatly improve the performance of VASP for DFT.       |
|     The default, NCORE=1 might be grossly inefficient on modern             |
|     multi-core architectures or massively parallel machines. Do your        |
|     own testing!!!!                                                         |
|     Unfortunately you need to use the default for GW and RPA                |
|     calculations (for HF NCORE is supported but not extensively tested      |
|     yet).                                                                   |

 POTCAR:    PAW_PBE Cd 06Sep2000
   VRHFIN =Cd : s2 d10

   TITEL  = PAW_PBE Cd 06Sep2000
   POMASS =  112.411; ZVAL   =   12.000    mass and valenz
   ENMAX  =  274.336; ENMIN  =  205.752 eV

 POTCAR:    PAW_PBE Cu 22Jun2005
   VRHFIN =Cu: d10 p1

   TITEL  = PAW_PBE Cu 22Jun2005
   POMASS =   63.546; ZVAL   =   11.000    mass and valenz
   ENMAX  =  295.446; ENMIN  =  221.585 eV

 POTCAR:    PAW_PBE Ge 05Jan2001
   VRHFIN =Ge: s2p2

   TITEL  = PAW_PBE Ge 05Jan2001
   POMASS =   72.610; ZVAL   =    4.000    mass and valenz
   ENMAX  =  173.807; ENMIN  =  130.355 eV

 POTCAR:    PAW_PBE Se 06Sep2000
   VRHFIN =Se: s2p4

   TITEL  = PAW_PBE Se 06Sep2000
   POMASS =   78.960; ZVAL   =    6.000    mass and valenz
   ENMAX  =  211.555; ENMIN  =  158.666 eV

  PAW_PBE Cd 06Sep2000                  :
  PAW_PBE Cu 22Jun2005                  :
  PAW_PBE Ge 05Jan2001                  :
  PAW_PBE Se 06Sep2000                  :

 POSCAR: cd2 cu4 ge2 se8
  positions in direct lattice
  velocities in cartesian coordinates
 exchange correlation table for  LEXCH =        8
   RHO(1)=    0.500       N(1)  =     2000
   RHO(2)=  100.500       N(2)  =     4000

 ion  position               nearest neighbor table
   1  0.006  0.144  1.000-  12 2.68   9 2.70  10 2.71  15 2.71
   2  0.506  0.834  0.500-  16 2.68  13 2.70  14 2.71  11 2.71
   3  0.004  0.660  0.251-  12 2.42  13 2.44  11 2.44  10 2.45
   4  0.504  0.318  0.751-  16 2.42   9 2.44  15 2.44  14 2.45
   5  0.504  0.318  0.249-  16 2.42   9 2.44  10 2.44  11 2.45
   6  0.004  0.660  0.749-  12 2.42  13 2.44  14 2.44  15 2.45
   7  0.008  0.162  0.500-  15 2.44  10 2.44  13 2.45  16 2.46
   8  0.508  0.815  1.000-  11 2.44  14 2.44   9 2.45  12 2.46
   9  0.604  0.153  1.000-   4 2.44   5 2.44   8 2.45   1 2.70
  10  0.141  0.335  0.265-   5 2.44   7 2.44   3 2.45   1 2.71
  11  0.641  0.642  0.235-   3 2.44   8 2.44   5 2.45   2 2.71
  12  0.143  0.784  1.000-   3 2.42   6 2.42   8 2.46   1 2.68
  13  0.104  0.824  0.500-   3 2.44   6 2.44   7 2.45   2 2.70
  14  0.641  0.642  0.765-   6 2.44   8 2.44   4 2.45   2 2.71
  15  0.141  0.335  0.735-   4 2.44   7 2.44   6 2.45   1 2.71
  16  0.643  0.194  0.500-   4 2.42   5 2.42   7 2.46   2 2.68

  LATTYP: Found a simple monoclinic cell.
 ALAT       =     9.6840297839
 B/A-ratio  =     0.8481842154
 C/A-ratio  =     1.6007884364
 COS(beta)  =    -0.9500558291

  Lattice vectors:

 A1 = (   6.7034278533,  -6.9888831633,  -0.0000037450)
 A2 = (   0.0000071799,   0.0000092825,  -8.2138412042)
 A3 = (  -6.7033657731,  13.9778203390,   0.0000061343)

Analysis of symmetry for initial positions (statically):
 Subroutine PRICEL returns:
 Original cell was already a primitive cell.

 Routine SETGRP: Setting up the symmetry group for a
 simple monoclinic supercell.

 Subroutine GETGRP returns: Found  1 space group operations
 (whereof  1 operations were pure point group operations)
 out of a pool of  4 trial point group operations.

The static configuration has the point symmetry C_1 .

Analysis of symmetry for dynamics (positions and initial velocities):
 Subroutine PRICEL returns:
 Original cell was already a primitive cell.

 Routine SETGRP: Setting up the symmetry group for a
 simple monoclinic supercell.

 Subroutine GETGRP returns: Found  1 space group operations
 (whereof  1 operations were pure point group operations)
 out of a pool of  4 trial point group operations.

The dynamic configuration has the point symmetry C_1 .

 Subroutine INISYM returns: Found  1 space group operations
 (whereof  1 operations are pure point group operations),
 and found     1 'primitive' translations

                                     Primitive cell

  volume of cell :     384.8207

  direct lattice vectors                    reciprocal lattice vectors
     6.703489934  0.000054012 -0.000001356     0.149176028 -0.000001325  0.000000130
     0.000062080  6.988937176  0.000002389    -0.000001153  0.143083272  0.000000162
    -0.000007180 -0.000009282  8.213841204     0.000000025 -0.000000042  0.121745719

  length of vectors
     6.703489934  6.988937176  8.213841204     0.149176028  0.143083272  0.121745719

  position of ions in fractional coordinates (direct lattice)
     0.006368231  0.143870624  0.999926526
     0.506345493  0.833792933  0.499928276
     0.003712506  0.659929943  0.251258295
     0.503720381  0.317503385  0.751299850
     0.503707808  0.317508129  0.248559935
     0.003706787  0.659925818  0.748591613
     0.007746183  0.162306037  0.499927829
     0.507737683  0.815146652  0.999928254
     0.604300971  0.153033155  0.999931043
     0.140829071  0.335488369  0.265226473
     0.640802676  0.642005591  0.234654894
     0.142538677  0.783716880  0.999924957
     0.104282022  0.824424315  0.499926801
     0.640801243  0.642005544  0.765200191
     0.140834527  0.335487504  0.734627276
     0.642565741  0.193855122  0.499927788

  ion indices of the primitive-cell ions
   primitive index   ion index
                 1           1
                 2           2
                 3           3
                 4           4
                 5           5
                 6           6
                 7           7
                 8           8
                 9           9
                10          10
                11          11
                12          12
                13          13
                14          14
                15          15
                16          16

 KPOINTS: elect

Automatic generation of k-mesh.
Space group operators:
 irot       det(A)        alpha          n_x          n_y          n_z        tau_x        tau_y        tau_z
    1     1.000000     0.000000     1.000000     0.000000     0.000000     0.000000     0.000000     0.000000
 TETIRR: Found    540 inequivalent tetrahedra from     1080

 Subroutine IBZKPT returns following result:

 Found     92 irreducible k-points:

 Following reciprocal coordinates:
            Coordinates               Weight
  0.000000  0.000000  0.000000      1.000000
  0.166667  0.000000  0.000000      2.000000
  0.333333  0.000000  0.000000      2.000000
  0.500000  0.000000  0.000000      1.000000
  0.000000  0.166667 -0.000000      2.000000
  0.166667  0.166667 -0.000000      2.000000
  0.333333  0.166667 -0.000000      2.000000
  0.500000  0.166667  0.000000      2.000000
 -0.333333  0.166667 -0.000000      2.000000
 -0.166667  0.166667 -0.000000      2.000000
  0.000000  0.333333 -0.000000      2.000000
  0.166667  0.333333 -0.000000      2.000000
  0.333333  0.333333 -0.000000      2.000000
  0.500000  0.333333 -0.000000      2.000000
 -0.333333  0.333333 -0.000000      2.000000
 -0.166667  0.333333 -0.000000      2.000000
  0.000000  0.500000 -0.000000      1.000000
  0.166667  0.500000 -0.000000      2.000000
  0.333333  0.500000 -0.000000      2.000000
  0.500000  0.500000 -0.000000      1.000000
  0.000000  0.000000  0.200000      2.000000
  0.166667 -0.000000  0.200000      2.000000
 -0.166667 -0.000000  0.200000      2.000000
  0.333333  0.000000  0.200000      2.000000
 -0.333333  0.000000  0.200000      2.000000
  0.500000  0.000000  0.200000      2.000000
  0.000000  0.166667  0.200000      2.000000
 -0.000000 -0.166667  0.200000      2.000000
  0.166667  0.166667  0.200000      2.000000
 -0.166667 -0.166667  0.200000      2.000000
  0.333333  0.166667  0.200000      2.000000
 -0.333333 -0.166667  0.200000      2.000000
  0.500000  0.166667  0.200000      2.000000
  0.500000 -0.166667  0.200000      2.000000
 -0.333333  0.166667  0.200000      2.000000
  0.333333 -0.166667  0.200000      2.000000
 -0.166667  0.166667  0.200000      2.000000
  0.166667 -0.166667  0.200000      2.000000
  0.000000  0.333333  0.200000      2.000000
 -0.000000 -0.333333  0.200000      2.000000
  0.166667  0.333333  0.200000      2.000000
 -0.166667 -0.333333  0.200000      2.000000
  0.333333  0.333333  0.200000      2.000000
 -0.333333 -0.333333  0.200000      2.000000
  0.500000  0.333333  0.200000      2.000000
  0.500000 -0.333333  0.200000      2.000000
 -0.333333  0.333333  0.200000      2.000000
  0.333333 -0.333333  0.200000      2.000000
 -0.166667  0.333333  0.200000      2.000000
  0.166667 -0.333333  0.200000      2.000000
  0.000000  0.500000  0.200000      2.000000
  0.166667  0.500000  0.200000      2.000000
 -0.166667  0.500000  0.200000      2.000000
  0.333333  0.500000  0.200000      2.000000
 -0.333333  0.500000  0.200000      2.000000
  0.500000  0.500000  0.200000      2.000000
  0.000000  0.000000  0.400000      2.000000
  0.166667 -0.000000  0.400000      2.000000
 -0.166667  0.000000  0.400000      2.000000
  0.333333  0.000000  0.400000      2.000000
[...]
 -0.166667 -0.333333  0.400000      2.000000
  0.333333  0.333333  0.400000      2.000000
 -0.333333 -0.333333  0.400000      2.000000
  0.500000  0.333333  0.400000      2.000000
  0.500000 -0.333333  0.400000      2.000000
 -0.333333  0.333333  0.400000      2.000000
  0.333333 -0.333333  0.400000      2.000000
 -0.166667  0.333333  0.400000      2.000000
  0.166667 -0.333333  0.400000      2.000000
  0.000000  0.500000  0.400000      2.000000
  0.166667  0.500000  0.400000      2.000000
 -0.166667  0.500000  0.400000      2.000000
  0.333333  0.500000  0.400000      2.000000
 -0.333333  0.500000  0.400000      2.000000
  0.500000  0.500000  0.400000      2.000000

 Following cartesian coordinates:
            Coordinates               Weight
  0.000000  0.000000  0.000000      1.000000
  0.024863 -0.000000  0.000000      2.000000
  0.049725 -0.000000  0.000000      2.000000
  0.074588 -0.000001  0.000000      1.000000
 -0.000000  0.023847  0.000000      2.000000
  0.024862  0.023847  0.000000      2.000000
[...]
    0.793916    8.577189    9.124111    8.156645   -0.004065    0.010465    0.003737
    0.811959    8.605850    9.163854    8.187969   -0.004231    0.010790    0.003893
    0.830003    8.635620    9.204910    8.219895   -0.004403    0.011116    0.004053
    0.848046    8.666469    9.247129    8.252252   -0.004578    0.011438    0.004215
    0.866090    8.698351    9.290336    8.284863   -0.004755    0.011753    0.004379
    0.884133    8.731208    9.334344    8.317551   -0.004931    0.012056    0.004541
    0.902177    8.764972    9.378962    8.350136   -0.005104    0.012344    0.004698
    0.920220    8.799571    9.423994    8.382439   -0.005271    0.012612    0.004849
    0.938264    8.834929    9.469244    8.414282   -0.005430    0.012855    0.004991
    0.956307    8.870972    9.514519    8.445482   -0.005577    0.013071    0.005121
    0.974351    8.907627    9.559625    8.475859   -0.005712    0.013253    0.005236
    0.992395    8.944824    9.604370    8.505229   -0.005829    0.013399    0.005335
    1.010438    8.982494    9.648562    8.533404   -0.005928    0.013502    0.005414
    1.028482    9.020572    9.692009    8.560193   -0.006006    0.013559    0.005470
    1.046525    9.058995    9.734515    8.585400   -0.006058    0.013565    0.005501
    1.064569    9.097705    9.775887    8.608821   -0.006084    0.013514    0.005503
[...]
   53.859960    0.881775    0.881691    0.881705   -0.000009    0.000010    0.000005
   53.878004    0.881863    0.881779    0.881793   -0.000009    0.000010    0.000005
   53.896047    0.881951    0.881868    0.881881   -0.000009    0.000010    0.000005
   53.914091    0.882039    0.881956    0.881969   -0.000009    0.000010    0.000005
   53.932134    0.882127    0.882044    0.882057   -0.000009    0.000010    0.000005
   53.950178    0.882215    0.882132    0.882145   -0.000009    0.000010    0.000005
   53.968221    0.882302    0.882219    0.882233   -0.000009    0.000010    0.000005
   53.986265    0.882390    0.882307    0.882321   -0.000009    0.000010    0.000005
   54.004308    0.882478    0.882395    0.882408   -0.000009    0.000010    0.000005
   54.022352    0.882565    0.882482    0.882496   -0.000009    0.000010    0.000005
   54.040395    0.882652    0.882570    0.882583   -0.000009    0.000010    0.000005
   54.058439    0.882739    0.882657    0.882670   -0.000009    0.000010    0.000005
   54.076482    0.882827    0.882744    0.882758   -0.000009    0.000010    0.000005
   54.094526    0.882913    0.882831    0.882845   -0.000009    0.000010    0.000004
   54.112570    0.883000    0.882918    0.882932   -0.000009    0.000010    0.000004

  frequency dependent IMAGINARY DIELECTRIC FUNCTION (independent particle, no local field effects) current-current
     E(ev)      X         Y         Z        XY        YZ        ZX
    0.000000   75.236741   78.930607   69.794787   -0.106883    0.224676    0.097721
    0.018044   75.236741   78.930607   69.794787   -0.106883    0.224676    0.097721
    0.036087   37.624820   39.473216   34.903249   -0.053509    0.112474    0.048927
    0.054131   25.090387   26.324279   23.275347   -0.035747    0.075134    0.032692
    0.072174   18.825335   19.752468   17.463363   -0.026890    0.056511    0.024596
    0.090218   15.068043   15.811521   13.977757   -0.021593    0.045374    0.019758
    0.108261   12.564643   13.186020   11.655350   -0.018078    0.037981    0.016547
    0.126305   10.777762   11.312219    9.997640   -0.015581    0.032728    0.014267
    0.144348    9.438717    9.908246    8.755379   -0.013720    0.028814    0.012570
    0.162392    8.398241    8.817508    7.790096   -0.012284    0.025792    0.011261
    0.180435    7.566775    7.946054    7.018711   -0.011146    0.023396    0.010224
    0.198479    6.887330    7.234096    6.388357   -0.010225    0.021456    0.009385
    0.216522    6.321912    6.641780    5.863791   -0.009466    0.019858    0.008696
    0.234566    5.844221    6.141515    5.420615   -0.008834    0.018525    0.008121
    0.252610    5.435473    5.713597    5.041405   -0.008300    0.017400    0.007638
    0.270653    5.081893    5.343578    4.713383   -0.007846    0.016443    0.007227
    0.288697    4.773153    5.020625    4.426969   -0.007458    0.015623    0.006877
    0.306740    4.501354    4.736454    4.174840   -0.007124    0.014917    0.006576
    0.324784    4.260357    4.484627    3.951299   -0.006835    0.014308    0.006317
    0.342827    4.045314    4.260063    3.751854   -0.006585    0.013781    0.006094
    0.360871    3.852351    4.058699    3.572911   -0.006369    0.013324    0.005902
    0.378914    3.678333    3.877250    3.411564   -0.006183    0.012930    0.005738
    0.396958    3.520694    3.713031    3.265439   -0.006023    0.012591    0.005598
    0.415001    3.377321    3.563827    3.132576   -0.005886    0.012302    0.005480
    0.433045    3.246451    3.427796    3.011346   -0.005770    0.012058    0.005381
    0.451088    3.126609    3.303396    2.900385   -0.005674    0.011856    0.005301
    0.469132    3.016547    3.189324    2.798539   -0.005596    0.011693    0.005238
    0.487176    2.915206    3.084478    2.704835   -0.005535    0.011566    0.005192
    0.505219    2.821682    2.987917    2.618439   -0.005491    0.011476    0.005161
    0.523263    2.735197    2.898838    2.538642   -0.005463    0.011420    0.005146
    0.541306    2.655082    2.816551    2.464834   -0.005450    0.011399    0.005146
    0.559350    2.580761    2.740465    2.396493   -0.005453    0.011414    0.005162
    0.577393    2.511732    2.670073    2.333171   -0.005472    0.011465    0.005194
    0.595437    2.447562    2.604939    2.274487   -0.005507    0.011555    0.005242
    0.613480    2.387876    2.544696    2.220117   -0.005560    0.011685    0.005308
    0.631524    2.332350    2.489034    2.169791   -0.005631    0.011861    0.005393
    0.649567    2.280706    2.437696    2.123289   -0.005723    0.012086    0.005498
    0.667611    2.232709    2.390480    2.080436   -0.005836    0.012366    0.005627
    0.685654    2.188162    2.347227    2.041099   -0.005974    0.012708    0.005781
    0.703698    2.146907    2.307828    2.005185   -0.006140    0.013121    0.005965
    0.721742    2.108819    2.272212    1.972627   -0.006337    0.013613    0.006182
    0.739785    2.073808    2.240341    1.943376   -0.006571    0.014193    0.006438
    0.757829    2.041812    2.212196    1.917380   -0.006846    0.014866    0.006737
    0.775872    2.012793    2.187767    1.894572   -0.007170    0.015638    0.007085
    0.793916    1.986726    2.167029    1.874856   -0.007546    0.016509    0.007488
    0.811959    1.963583    2.149933    1.858110   -0.007980    0.017476    0.007949
    0.830003    1.943327    2.136398    1.844185   -0.008475    0.018534    0.008471
    0.848046    1.925898    2.126303    1.832918   -0.009032    0.019677    0.009054
    0.866090    1.911214    2.119496    1.824136   -0.009649    0.020897    0.009697
    0.884133    1.899171    2.115803    1.817664   -0.010324    0.022185    0.010397
    0.902177    1.889650    2.115036    1.813329   -0.011052    0.023533    0.011149
    0.920220    1.882518    2.117002    1.810965   -0.011830    0.024932    0.011950
    0.938264    1.877640    2.121508    1.810412   -0.012651    0.026374    0.012793
    0.956307    1.874878    2.128370    1.811522   -0.013511    0.027849    0.013674
    0.974351    1.874098    2.137410    1.814154   -0.014404    0.029352    0.014587
    0.992395    1.875172    2.148463    1.818180   -0.015325    0.030873    0.015526
    1.010438    1.877979    2.161376    1.823481   -0.016268    0.032406    0.016487
    1.028482    1.882408    2.176007    1.829947   -0.017229    0.033944    0.017464
    1.046525    1.888357    2.192231    1.837477   -0.018201    0.035480    0.018452
    1.064569    1.895732    2.209934    1.845982   -0.019181    0.037007    0.019447
[...]
   53.859960    0.000050    0.000051    0.000051   -0.000000   -0.000000    0.000000
   53.878004    0.000050    0.000050    0.000050   -0.000000   -0.000000    0.000000
   53.896047    0.000050    0.000050    0.000050   -0.000000   -0.000000    0.000000
   53.914091    0.000050    0.000050    0.000050   -0.000000   -0.000000    0.000000
   53.932134    0.000050    0.000050    0.000050   -0.000000   -0.000000    0.000000
   53.950178    0.000050    0.000050    0.000050   -0.000000   -0.000000    0.000000
   53.968221    0.000050    0.000050    0.000050   -0.000000   -0.000000    0.000000
   53.986265    0.000050    0.000050    0.000050   -0.000000   -0.000000    0.000000
   54.004308    0.000049    0.000050    0.000050   -0.000000   -0.000000    0.000000
   54.022352    0.000049    0.000050    0.000050   -0.000000   -0.000000    0.000000
   54.040395    0.000049    0.000049    0.000049   -0.000000   -0.000000    0.000000
   54.058439    0.000049    0.000049    0.000049   -0.000000   -0.000000    0.000000
   54.076482    0.000049    0.000049    0.000049   -0.000000   -0.000000    0.000000
   54.094526    0.000049    0.000049    0.000049   -0.000000   -0.000000    0.000000
   54.112570    0.000049    0.000049    0.000049   -0.000000   -0.000000    0.000000

  frequency dependent      REAL DIELECTRIC FUNCTION (independent particle, no local field effects) current-current
     E(ev)        X           Y           Z          XY          YZ          ZX
    0.000000    7.763543    8.091294    7.274783   -0.009389    0.019756    0.008566
    0.018044    7.763543    8.091294    7.274783   -0.009389    0.019756    0.008566
    0.036087    7.764109    8.091986    7.275294   -0.009395    0.019768    0.008572
    0.054131    7.765053    8.093138    7.276147   -0.009404    0.019787    0.008581
    0.072174    7.766377    8.094754    7.277342   -0.009418    0.019813    0.008594
    0.090218    7.768081    8.096834    7.278880   -0.009435    0.019848    0.008611
    0.108261    7.770166    8.099382    7.280765   -0.009456    0.019890    0.008631
    0.126305    7.772636    8.102399    7.282996   -0.009480    0.019940    0.008656
    0.144348    7.775492    8.105890    7.285578   -0.009509    0.019998    0.008684
    0.162392    7.778737    8.109858    7.288513   -0.009542    0.020065    0.008716
    0.180435    7.782374    8.114308    7.291805   -0.009579    0.020140    0.008753
    0.198479    7.786407    8.119246    7.295457   -0.009620    0.020223    0.008793
    0.216522    7.790841    8.124676    7.299475   -0.009666    0.020315    0.008838
    0.234566    7.795679    8.130606    7.303862   -0.009716    0.020417    0.008888
    0.252610    7.800926    8.137043    7.308624   -0.009771    0.020527    0.008941
    0.270653    7.806589    8.143995    7.313767   -0.009830    0.020647    0.009000
    0.288697    7.812672    8.151470    7.319299   -0.009895    0.020778    0.009063
    0.306740    7.819184    8.159478    7.325225   -0.009964    0.020918    0.009132
    0.324784    7.826130    8.168030    7.331554   -0.010039    0.021069    0.009206
    0.342827    7.833518    8.177136    7.338295   -0.010119    0.021232    0.009285
    0.360871    7.841358    8.186810    7.345457   -0.010205    0.021406    0.009370
    0.378914    7.849658    8.197064    7.353050   -0.010297    0.021593    0.009460
    0.396958    7.858428    8.207914    7.361085   -0.010395    0.021792    0.009558
    0.415001    7.867679    8.219375    7.369575   -0.010499    0.022005    0.009661
    0.433045    7.877422    8.231464    7.378532   -0.010611    0.022232    0.009772
    0.451088    7.887670    8.244199    7.387971   -0.010730    0.022474    0.009890
    0.469132    7.898436    8.257602    7.397908   -0.010857    0.022732    0.010016
    0.487176    7.909735    8.271693    7.408358   -0.010992    0.023007    0.010150
    0.505219    7.921583    8.286497    7.419341   -0.011135    0.023300    0.010293
    0.523263    7.933997    8.302037    7.430875   -0.011288    0.023612    0.010445
    0.541306    7.946994    8.318343    7.442981   -0.011450    0.023944    0.010607
    0.559350    7.960595    8.335442    7.455681   -0.011623    0.024297    0.010780
    0.577393    7.974821    8.353366    7.468998   -0.011807    0.024673    0.010964
    0.595437    7.989694    8.372146    7.482955   -0.012003    0.025073    0.011159
    0.613480    8.005238    8.391817    7.497576   -0.012211    0.025499    0.011368
    0.631524    8.021478    8.412412    7.512882   -0.012433    0.025950    0.011590
    0.649567    8.038440    8.433963    7.528890   -0.012669    0.026428    0.011827
    0.667611    8.056150    8.456497    7.545608   -0.012920    0.026933    0.012079
    0.685654    8.074632    8.480033    7.563033   -0.013187    0.027464    0.012346
    0.703698    8.093908    8.504574    7.581138   -0.013470    0.028017    0.012629
    0.721742    8.113992    8.530102    7.599869   -0.013769    0.028587    0.012928
    0.739785    8.134887    8.556568    7.619134   -0.014084    0.029165    0.013241
    0.757829    8.156580    8.583883    7.638807   -0.014413    0.029742    0.013566
    0.775872    8.179032    8.611920    7.658735   -0.014753    0.030303    0.013899
    0.793916    8.202175    8.640514    7.678748   -0.015098    0.030833    0.014235
    0.811959    8.225913    8.669470    7.698680   -0.015441    0.031320    0.014566
    0.830003    8.250124    8.698579    7.718375   -0.015774    0.031751    0.014884
    0.848046    8.274675    8.727636    7.737699   -0.016088    0.032115    0.015180
    0.866090    8.299427    8.756450    7.756540   -0.016374    0.032403    0.015445
    0.884133    8.324250    8.784855    7.774809   -0.016623    0.032607    0.015672
    0.902177    8.349026    8.812714    7.792438   -0.016830    0.032721    0.015852
    0.920220    8.373656    8.839919    7.809377   -0.016986    0.032741    0.015981
    0.938264    8.398060    8.866388    7.825593   -0.017087    0.032664    0.016054
    0.956307    8.422177    8.892065    7.841064   -0.017129    0.032486    0.016065
    0.974351    8.445965    8.916915    7.855783   -0.017108    0.032204    0.016012
    0.992395    8.469394    8.940919    7.869749   -0.017021    0.031819    0.015892
    1.010438    8.492452    8.964074    7.882969   -0.016867    0.031327    0.015702
    1.028482    8.515138    8.986391    7.895458   -0.016641    0.030728    0.015440
    1.046525    8.537459    9.007892    7.907234   -0.016344    0.030021    0.015106
    1.064569    8.559435    9.028606    7.918318   -0.015973    0.029205    0.014697
[...]
   53.859960    0.882302    0.882184    0.882315    0.000005   -0.000009   -0.000004
   53.878004    0.882390    0.882272    0.882403    0.000005   -0.000009   -0.000004
   53.896047    0.882477    0.882360    0.882491    0.000005   -0.000009   -0.000004
   53.914091    0.882565    0.882448    0.882579    0.000005   -0.000009   -0.000004
   53.932134    0.882653    0.882536    0.882666    0.000005   -0.000009   -0.000004
   53.950178    0.882740    0.882623    0.882754    0.000005   -0.000009   -0.000004
   53.968221    0.882827    0.882711    0.882841    0.000005   -0.000009   -0.000004
   53.986265    0.882915    0.882798    0.882928    0.000005   -0.000009   -0.000004
   54.004308    0.883002    0.882886    0.883016    0.000005   -0.000009   -0.000004
   54.022352    0.883089    0.882973    0.883103    0.000005   -0.000009   -0.000004
   54.040395    0.883176    0.883060    0.883190    0.000005   -0.000009   -0.000004
   54.058439    0.883263    0.883147    0.883277    0.000005   -0.000009   -0.000004
   54.076482    0.883349    0.883234    0.883363    0.000005   -0.000009   -0.000004
   54.094526    0.883436    0.883320    0.883450    0.000005   -0.000009   -0.000004
   54.112570    0.883522    0.883407    0.883537    0.000005   -0.000009   -0.000004

 The outermost node in the dielectric function lies at epsilon=  17.2

 total charge

# of ion       s       p       d       tot
    1        0.410   0.273   9.593  10.276
    2        0.410   0.273   9.593  10.276
    3        0.330   0.308   9.369  10.007
    4        0.330   0.308   9.369  10.007
    5        0.330   0.308   9.369  10.007
    6        0.330   0.308   9.369  10.007
    7        1.120   1.053   0.113   2.286
    8        1.120   1.053   0.113   2.286
    9        1.462   2.391   0.040   3.893
   10        1.463   2.388   0.040   3.890
   11        1.463   2.388   0.040   3.890
   12        1.459   2.398   0.041   3.899
   13        1.462   2.391   0.040   3.893
   14        1.463   2.388   0.040   3.890
   15        1.463   2.388   0.040   3.890
   16        1.459   2.398   0.041   3.899
tot         16.074  23.014  57.208  96.296

 BZINTS: Fermi energy:    2.201687;  124.000000 electrons
         Band energy:-0.432249E+03;  BLOECHL correction:    0.000000