 vasp.6.1.0 28Jan20 (build Jan 13 2021 21:44:47) complex

 executed on             LinuxIFC date 2021.03.05  19:51:50

 INCAR:
 POTCAR:    PAW_PBE Cd 06Sep2000
 POTCAR:    PAW_PBE Cu 22Jun2005
 POTCAR:    PAW_PBE Ge 05Jan2001
 POTCAR:    PAW_PBE Se 06Sep2000
 POTCAR:    PAW_PBE S 06Sep2000
|           W    W    AA    RRRRR   N    N  II  N    N   GGGG   !!!           |
|           W    W   A  A   R    R  NN   N  II  NN   N  G    G  !!!           |
|           W    W  A    A  R    R  N N  N  II  N N  N  G       !!!           |
|           W WW W  AAAAAA  RRRRR   N  N N  II  N  N N  G  GGG   !            |
|           WW  WW  A    A  R   R   N   NN  II  N   NN  G    G                |
|           W    W  A    A  R    R  N    N  II  N    N   GGGG   !!!           |
|     For optimal performance we recommend to set                             |
|       NCORE = 4 - approx SQRT(number of cores).                             |
|     This setting can greatly improve the performance of VASP for DFT.       |
|     The default, NCORE=1 might be grossly inefficient on modern             |
|     multi-core architectures or massively parallel machines. Do your        |
|     own testing!!!!                                                         |
|     Unfortunately you need to use the default for GW and RPA                |
|     calculations (for HF NCORE is supported but not extensively tested      |
|     yet).                                                                   |

 POTCAR:    PAW_PBE Cd 06Sep2000
   VRHFIN =Cd : s2 d10

   TITEL  = PAW_PBE Cd 06Sep2000
   POMASS =  112.411; ZVAL   =   12.000    mass and valenz
   ENMAX  =  274.336; ENMIN  =  205.752 eV

 POTCAR:    PAW_PBE Cu 22Jun2005
   VRHFIN =Cu: d10 p1

   TITEL  = PAW_PBE Cu 22Jun2005
   POMASS =   63.546; ZVAL   =   11.000    mass and valenz
   ENMAX  =  295.446; ENMIN  =  221.585 eV

 POTCAR:    PAW_PBE Ge 05Jan2001
   VRHFIN =Ge: s2p2

   TITEL  = PAW_PBE Ge 05Jan2001
   POMASS =   72.610; ZVAL   =    4.000    mass and valenz
   ENMAX  =  173.807; ENMIN  =  130.355 eV

 POTCAR:    PAW_PBE Se 06Sep2000
   VRHFIN =Se: s2p4

[...]

 POTCAR:    PAW_PBE S 06Sep2000
   VRHFIN =S : s2p4

   TITEL  = PAW_PBE S 06Sep2000
   POMASS =   32.066; ZVAL   =    6.000    mass and valenz
   ENMAX  =  258.689; ENMIN  =  194.016 eV

  PAW_PBE Cd 06Sep2000                  :
  PAW_PBE Cu 22Jun2005                  :
  PAW_PBE Ge 05Jan2001                  :
  PAW_PBE Se 06Sep2000                  :
  PAW_PBE S 06Sep2000                   :

 POSCAR: x 0.125
  positions in direct lattice
  velocities in cartesian coordinates
 exchange correlation table for  LEXCH =        8
   RHO(1)=    0.500       N(1)  =     2000
   RHO(2)=  100.500       N(2)  =     4000

 ion  position               nearest neighbor table
   1  0.005  0.146  1.000-  12 2.67   9 2.69  15 2.70  10 2.70
   2  0.508  0.846  0.500-  16 2.59  13 2.69  11 2.71  14 2.71
   3  0.003  0.660  0.252-  12 2.41  11 2.43  13 2.43  10 2.44
   4  0.511  0.309  0.737-  16 2.29  15 2.46   9 2.47  14 2.47
   5  0.511  0.309  0.262-  16 2.29  10 2.46   9 2.47  11 2.47
   6  0.003  0.660  0.748-  12 2.41  14 2.43  13 2.43  15 2.44
   7  0.999  0.165  0.500-  16 2.33  15 2.43  10 2.43  13 2.44
   8  0.507  0.814  1.000-  11 2.44  14 2.44  12 2.45   9 2.45
   9  0.600  0.154  1.000-   8 2.45   4 2.47   5 2.47   1 2.69
  10  0.142  0.335  0.267-   7 2.43   3 2.44   5 2.46   1 2.70
  11  0.639  0.641  0.238-   3 2.43   8 2.44   5 2.47   2 2.71
  12  0.140  0.785  1.000-   3 2.41   6 2.41   8 2.45   1 2.67
  13  0.103  0.828  0.500-   3 2.43   6 2.43   7 2.44   2 2.69
  14  0.639  0.641  0.762-   6 2.43   8 2.44   4 2.47   2 2.71
  15  0.142  0.335  0.733-   7 2.43   6 2.44   4 2.46   1 2.70
  16  0.648  0.192  0.500-   4 2.29   5 2.29   7 2.33   2 2.59

  LATTYP: Found a simple monoclinic cell.
 ALAT       =     9.6016694985
 B/A-ratio  =     0.8498012095
 C/A-ratio  =     1.6039132096
 COS(beta)  =    -0.9498390860

  Lattice vectors:

 A1 = (   6.6282647125,  -6.9468096316,  -0.0000233383)
 A2 = (  -0.0000089696,   0.0000159006,  -8.1595103525)
 A3 = (  -6.6133291791,  13.9079620772,   0.0000234118)

Analysis of symmetry for initial positions (statically):
 Subroutine PRICEL returns:
 Original cell was already a primitive cell.

 Routine SETGRP: Setting up the symmetry group for a
 simple monoclinic supercell.

 Subroutine GETGRP returns: Found  1 space group operations
 (whereof  1 operations were pure point group operations)
 out of a pool of  4 trial point group operations.

The static configuration has the point symmetry C_1 .

Analysis of symmetry for dynamics (positions and initial velocities):
 Subroutine PRICEL returns:
 Original cell was already a primitive cell.

 Routine SETGRP: Setting up the symmetry group for a
 simple monoclinic supercell.

 Subroutine GETGRP returns: Found  1 space group operations
 (whereof  1 operations were pure point group operations)
 out of a pool of  4 trial point group operations.

The dynamic configuration has the point symmetry C_1 .

 Subroutine INISYM returns: Found  1 space group operations
 (whereof  1 operations are pure point group operations),
 and found     1 'primitive' translations

                                     Primitive cell

  volume of cell :     377.3293

  direct lattice vectors                    reciprocal lattice vectors
     6.643200246  0.014342814 -0.000023265     0.150530557 -0.000322972 -0.000000166
     0.014935533  6.961152446  0.000000074    -0.000310154  0.143655040  0.000000280
     0.000008970 -0.000015901  8.159510353     0.000000429 -0.000000002  0.122556374

  length of vectors
     6.643215729  6.961168468  8.159510353     0.150530903  0.143655375  0.122556374

  position of ions in fractional coordinates (direct lattice)
     0.004785422  0.146447517  0.999925795
     0.507841132  0.845924847  0.499927656
     0.003113225  0.659709361  0.252068689
     0.511320328  0.309357047  0.737383972
     0.511316301  0.309364957  0.262468965
     0.003107876  0.659708908  0.747786799
     0.998568078  0.164931147  0.499927715
     0.507229169  0.813686121  0.999928263
     0.599965077  0.153791944  0.999928367
     0.141806506  0.334824777  0.266963773
     0.638725565  0.641276229  0.237762416
     0.140375655  0.784672684  0.999927987
     0.103084992  0.828397417  0.499929020
     0.638722706  0.641274462  0.762093747
     0.141808225  0.334825753  0.732891125
     0.648229741  0.191806831  0.499925712

  ion indices of the primitive-cell ions
   primitive index   ion index
                 1           1
                 2           2
                 3           3
                 4           4
                 5           5
                 6           6
                 7           7
                 8           8
                 9           9
                10          10
                11          11
                12          12
                13          13
                14          14
                15          15
                16          16

 KPOINTS: elect

Automatic generation of k-mesh.
Space group operators:
 irot       det(A)        alpha          n_x          n_y          n_z        tau_x        tau_y        tau_z
    1     1.000000     0.000000     1.000000     0.000000     0.000000     0.000000     0.000000     0.000000
 TETIRR: Found    540 inequivalent tetrahedra from     1080

 Subroutine IBZKPT returns following result:

 Found     92 irreducible k-points:

 Following reciprocal coordinates:
            Coordinates               Weight
  0.000000  0.000000  0.000000      1.000000
  0.166667  0.000000  0.000000      2.000000
  0.333333  0.000000  0.000000      2.000000
  0.500000  0.000000  0.000000      1.000000
 -0.000000  0.166667  0.000000      2.000000
  0.166667  0.166667  0.000000      2.000000
  0.333333  0.166667 -0.000000      2.000000
  0.500000  0.166667 -0.000000      2.000000
 -0.333333  0.166667 -0.000000      2.000000
 -0.166667  0.166667  0.000000      2.000000
 -0.000000  0.333333 -0.000000      2.000000
  0.166667  0.333333 -0.000000      2.000000
  0.333333  0.333333 -0.000000      2.000000
  0.500000  0.333333 -0.000000      2.000000
 -0.333333  0.333333  0.000000      2.000000
 -0.166667  0.333333 -0.000000      2.000000
 -0.000000  0.500000 -0.000000      1.000000
  0.166667  0.500000  0.000000      2.000000
  0.333333  0.500000  0.000000      2.000000
  0.500000  0.500000  0.000000      1.000000
  0.000000  0.000000  0.200000      2.000000
  0.166667  0.000000  0.200000      2.000000
 -0.166667 -0.000000  0.200000      2.000000
  0.333333 -0.000000  0.200000      2.000000
 -0.333333 -0.000000  0.200000      2.000000
  0.500000  0.000000  0.200000      2.000000
 -0.000000  0.166667  0.200000      2.000000
  0.000000 -0.166667  0.200000      2.000000
  0.166667  0.166667  0.200000      2.000000
 -0.166667 -0.166667  0.200000      2.000000
  0.333333  0.166667  0.200000      2.000000
 -0.333333 -0.166667  0.200000      2.000000
  0.500000  0.166667  0.200000      2.000000
  0.500000 -0.166667  0.200000      2.000000
 -0.333333  0.166667  0.200000      2.000000
  0.333333 -0.166667  0.200000      2.000000
 -0.166667  0.166667  0.200000      2.000000
  0.166667 -0.166667  0.200000      2.000000
 -0.000000  0.333333  0.200000      2.000000
  0.000000 -0.333333  0.200000      2.000000
  0.166667  0.333333  0.200000      2.000000
 -0.166667 -0.333333  0.200000      2.000000
  0.333333  0.333333  0.200000      2.000000
 -0.333333 -0.333333  0.200000      2.000000
  0.500000  0.333333  0.200000      2.000000
  0.500000 -0.333333  0.200000      2.000000
 -0.333333  0.333333  0.200000      2.000000
  0.333333 -0.333333  0.200000      2.000000
 -0.166667  0.333333  0.200000      2.000000
  0.166667 -0.333333  0.200000      2.000000
 -0.000000  0.500000  0.200000      2.000000
  0.166667  0.500000  0.200000      2.000000
 -0.166667  0.500000  0.200000      2.000000
  0.333333  0.500000  0.200000      2.000000
 -0.333333  0.500000  0.200000      2.000000
  0.500000  0.500000  0.200000      2.000000
  0.000000  0.000000  0.400000      2.000000
  0.166667  0.000000  0.400000      2.000000
 -0.166667 -0.000000  0.400000      2.000000
  0.333333  0.000000  0.400000      2.000000
[...]
 -0.166667 -0.333333  0.400000      2.000000
  0.333333  0.333333  0.400000      2.000000
 -0.333333 -0.333333  0.400000      2.000000
  0.500000  0.333333  0.400000      2.000000
  0.500000 -0.333333  0.400000      2.000000
 -0.333333  0.333333  0.400000      2.000000
  0.333333 -0.333333  0.400000      2.000000
 -0.166667  0.333333  0.400000      2.000000
  0.166667 -0.333333  0.400000      2.000000
 -0.000000  0.500000  0.400000      2.000000
  0.166667  0.500000  0.400000      2.000000
 -0.166667  0.500000  0.400000      2.000000
  0.333333  0.500000  0.400000      2.000000
 -0.333333  0.500000  0.400000      2.000000
  0.500000  0.500000  0.400000      2.000000

 Following cartesian coordinates:
            Coordinates               Weight
  0.000000  0.000000  0.000000      1.000000
  0.025088 -0.000054 -0.000000      2.000000
  0.050177 -0.000108 -0.000000      2.000000
[...]
    0.799807    8.118849    8.568428    7.749276    0.011605    0.007881    0.002975
    0.817985    8.140924    8.598249    7.773567    0.010982    0.008150    0.003076
    0.836162    8.163914    8.629420    7.798895    0.010312    0.008434    0.003184
    0.854340    8.187854    8.661968    7.825219    0.009597    0.008731    0.003300
    0.872517    8.212773    8.695896    7.852461    0.008840    0.009040    0.003422
    0.890694    8.238693    8.731180    7.880518    0.008051    0.009356    0.003551
    0.908872    8.265625    8.767758    7.909263    0.007240    0.009677    0.003685
    0.927049    8.293570    8.805540    7.938557    0.006423    0.009998    0.003824
    0.945227    8.322514    8.844405    7.968252    0.005617    0.010315    0.003965
    0.963404    8.352435    8.884212    7.998195    0.004843    0.010624    0.004107
    0.981582    8.383297    8.924810    8.028232    0.004119    0.010921    0.004248
    0.999759    8.415053    8.966039    8.058207    0.003467    0.011200    0.004385
    1.017937    8.447649    9.007736    8.087965    0.002904    0.011458    0.004516
    1.036114    8.481023    9.049741    8.117348    0.002450    0.011689    0.004639
    1.054291    8.515109    9.091892    8.146198    0.002123    0.011889    0.004752
    1.072469    8.549840    9.134028    8.174358    0.001940    0.012054    0.004852
[...]
   54.259653    0.881772    0.881717    0.881646    0.000000    0.000006    0.000006
   54.277830    0.881861    0.881805    0.881735    0.000000    0.000006    0.000006
   54.296008    0.881949    0.881893    0.881823    0.000000    0.000006    0.000006
   54.314185    0.882037    0.881982    0.881911    0.000000    0.000006    0.000006
   54.332363    0.882125    0.882070    0.881999    0.000000    0.000006    0.000006
   54.350540    0.882213    0.882158    0.882087    0.000000    0.000006    0.000006
   54.368718    0.882301    0.882246    0.882175    0.000000    0.000006    0.000006
   54.386895    0.882389    0.882333    0.882263    0.000000    0.000006    0.000006
   54.405072    0.882476    0.882421    0.882351    0.000000    0.000006    0.000006
   54.423250    0.882564    0.882509    0.882438    0.000000    0.000006    0.000006
   54.441427    0.882651    0.882596    0.882526    0.000000    0.000006    0.000006
   54.459605    0.882739    0.882684    0.882613    0.000000    0.000006    0.000006
   54.477782    0.882826    0.882771    0.882701    0.000000    0.000006    0.000006
   54.495960    0.882913    0.882858    0.882788    0.000000    0.000006    0.000006
   54.514137    0.883000    0.882945    0.882875    0.000000    0.000006    0.000006

  frequency dependent IMAGINARY DIELECTRIC FUNCTION (independent particle, no local field effects) current-current
     E(ev)      X         Y         Z        XY        YZ        ZX
    0.000000   71.778258   74.994962   67.115199    0.234647    0.181864    0.075369
    0.018177   71.778258   74.994962   67.115199    0.234647    0.181864    0.075369
    0.036355   35.894570   37.503992   33.562473    0.117302    0.091032    0.037726
    0.054532   23.935763   25.009903   22.380403    0.078177    0.060799    0.025197
    0.072710   17.958183   18.765042   16.791002    0.058607    0.045716    0.018947
    0.090887   14.373100   15.019882   13.438676    0.046859    0.036694    0.015208
    0.109065   11.984272   12.524581   11.204894    0.039021    0.030702    0.012725
    0.127242   10.279026   10.743496    9.610289    0.033417    0.026442    0.010960
    0.145420    9.001027    9.408806    8.415176    0.029210    0.023265    0.009644
    0.163597    8.007866    8.371725    7.486401    0.025933    0.020811    0.008627
    0.181774    7.214101    7.542981    6.744070    0.023307    0.018863    0.007820
    0.199952    6.565359    6.865767    6.137344    0.021155    0.017284    0.007166
    0.218129    6.025394    6.302213    5.632332    0.019356    0.015981    0.006626
    0.236307    5.569111    5.826102    5.205569    0.017830    0.014892    0.006175
    0.254484    5.178589    5.418709    4.840300    0.016518    0.013971    0.005794
    0.272662    4.840685    5.066305    4.524235    0.015376    0.013185    0.005469
    0.290839    4.545542    4.758593    4.248159    0.014372    0.012510    0.005189
    0.309016    4.285626    4.487702    4.005027    0.013481    0.011926    0.004947
    0.327194    4.055075    4.247508    3.789359    0.012684    0.011419    0.004738
    0.345371    3.849263    4.033182    3.596832    0.011965    0.010978    0.004555
    0.363549    3.664492    3.840859    3.423986    0.011312    0.010592    0.004396
    0.381726    3.497767    3.667413    3.268025    0.010716    0.010256    0.004256
    0.399904    3.346641    3.510289    3.126659    0.010167    0.009964    0.004135
    0.418081    3.209090    3.367376    2.998000    0.009659    0.009709    0.004030
    0.436259    3.083432    3.236918    2.880475    0.009186    0.009489    0.003939
    0.454436    2.968254    3.117441    2.772766    0.008743    0.009301    0.003861
    0.472613    2.862361    3.007701    2.673757    0.008325    0.009141    0.003795
    0.490791    2.764739    2.906640    2.582501    0.007929    0.009008    0.003740
    0.508968    2.674517    2.813354    2.498189    0.007551    0.008901    0.003695
    0.527146    2.590947    2.727065    2.420124    0.007188    0.008818    0.003660
    0.545323    2.513384    2.647104    2.347707    0.006837    0.008758    0.003635
    0.563501    2.441267    2.572890    2.280418    0.006496    0.008721    0.003619
    0.581678    2.374107    2.503919    2.217806    0.006162    0.008707    0.003612
    0.599855    2.311478    2.439753    2.159478    0.005831    0.008715    0.003614
    0.618033    2.253005    2.380010    2.105092    0.005503    0.008747    0.003625
    0.636210    2.198360    2.324358    2.054353    0.005173    0.008804    0.003646
    0.654388    2.147257    2.272507    2.007002    0.004839    0.008886    0.003677
    0.672565    2.099441    2.224208    1.962818    0.004498    0.008995    0.003718
    0.690743    2.054693    2.179248    1.921611    0.004146    0.009134    0.003771
    0.708920    2.012820    2.137444    1.883223    0.003780    0.009305    0.003836
    0.727098    1.973653    2.098647    1.847525    0.003395    0.009513    0.003914
    0.745275    1.937053    2.062739    1.814414    0.002986    0.009762    0.004007
    0.763452    1.902898    2.029629    1.783819    0.002546    0.010058    0.004116
    0.781630    1.871093    1.999258    1.755695    0.002068    0.010408    0.004245
    0.799807    1.841563    1.971598    1.730021    0.001545    0.010820    0.004395
    0.817985    1.814256    1.946644    1.706797    0.000966    0.011301    0.004570
    0.836162    1.789143    1.924417    1.686033    0.000321    0.011862    0.004774
    0.854340    1.766215    1.904952    1.667737   -0.000400    0.012510    0.005012
    0.872517    1.745478    1.888287    1.651899   -0.001207    0.013249    0.005287
    0.890694    1.726951    1.874452    1.638484   -0.002106    0.014083    0.005604
    0.908872    1.710652    1.863457    1.627428   -0.003103    0.015010    0.005967
    0.927049    1.696589    1.855283    1.618643   -0.004199    0.016028    0.006379
    0.945227    1.684753    1.849877    1.612022   -0.005390    0.017131    0.006841
    0.963404    1.675119    1.847155    1.607448   -0.006670    0.018314    0.007352
    0.981582    1.667642    1.847010    1.604795   -0.008029    0.019569    0.007911
    0.999759    1.662263    1.849317    1.603936   -0.009457    0.020888    0.008514
    1.017937    1.658909    1.853939    1.604747   -0.010942    0.022263    0.009160
    1.036114    1.657496    1.860740    1.607104   -0.012473    0.023687    0.009844
    1.054291    1.657934    1.869580    1.610892   -0.014038    0.025152    0.010562
    1.072469    1.660129    1.880327    1.615999   -0.015628    0.026650    0.011309
[...]
   54.259653    0.000051    0.000051    0.000051   -0.000000    0.000000   -0.000000
   54.277830    0.000050    0.000051    0.000051   -0.000000    0.000000   -0.000000
   54.296008    0.000050    0.000051    0.000050   -0.000000    0.000000   -0.000000
   54.314185    0.000050    0.000050    0.000050   -0.000000    0.000000   -0.000000
   54.332363    0.000050    0.000050    0.000050   -0.000000    0.000000   -0.000000
   54.350540    0.000050    0.000050    0.000050   -0.000000    0.000000   -0.000000
   54.368718    0.000050    0.000050    0.000050   -0.000000    0.000000   -0.000000
   54.386895    0.000050    0.000050    0.000050   -0.000000    0.000000   -0.000000
   54.405072    0.000050    0.000050    0.000050   -0.000000    0.000000   -0.000000
   54.423250    0.000050    0.000050    0.000050   -0.000000    0.000000   -0.000000
   54.441427    0.000049    0.000050    0.000050   -0.000000    0.000000   -0.000000
   54.459605    0.000049    0.000050    0.000049   -0.000000    0.000000   -0.000000
   54.477782    0.000049    0.000049    0.000049   -0.000000    0.000000   -0.000000
   54.495960    0.000049    0.000049    0.000049   -0.000000    0.000000   -0.000000
   54.514137    0.000049    0.000049    0.000049   -0.000000    0.000000   -0.000000

  frequency dependent      REAL DIELECTRIC FUNCTION (independent particle, no local field effects) current-current
     E(ev)        X           Y           Z          XY          YZ          ZX
    0.000000    7.503527    7.791894    7.081807    0.021410    0.016156    0.006694
    0.018177    7.503527    7.791894    7.081807    0.021410    0.016156    0.006694
    0.036355    7.504010    7.792471    7.082239    0.021408    0.016165    0.006698
    0.054532    7.504817    7.793433    7.082959    0.021406    0.016179    0.006704
    0.072710    7.505947    7.794781    7.083968    0.021402    0.016199    0.006712
    0.090887    7.507402    7.796517    7.085267    0.021397    0.016225    0.006723
    0.109065    7.509183    7.798641    7.086857    0.021391    0.016256    0.006736
    0.127242    7.511290    7.801156    7.088739    0.021384    0.016294    0.006752
    0.145420    7.513727    7.804065    7.090916    0.021376    0.016337    0.006770
    0.163597    7.516494    7.807369    7.093389    0.021366    0.016386    0.006790
    0.181774    7.519594    7.811073    7.096161    0.021355    0.016442    0.006814
    0.199952    7.523030    7.815179    7.099234    0.021342    0.016504    0.006840
    0.218129    7.526804    7.819692    7.102612    0.021328    0.016572    0.006868
    0.236307    7.530920    7.824616    7.106297    0.021312    0.016647    0.006900
    0.254484    7.535381    7.829956    7.110293    0.021294    0.016729    0.006934
    0.272662    7.540192    7.835717    7.114604    0.021274    0.016818    0.006971
    0.290839    7.545355    7.841905    7.119235    0.021252    0.016914    0.007011
    0.309016    7.550876    7.848526    7.124190    0.021227    0.017017    0.007055
    0.327194    7.556760    7.855588    7.129474    0.021201    0.017129    0.007101
    0.345371    7.563012    7.863098    7.135094    0.021171    0.017248    0.007151
    0.363549    7.569638    7.871064    7.141055    0.021138    0.017375    0.007205
    0.381726    7.576643    7.879494    7.147365    0.021102    0.017512    0.007262
    0.399904    7.584036    7.888399    7.154029    0.021062    0.017657    0.007323
    0.418081    7.591823    7.897789    7.161057    0.021019    0.017812    0.007387
    0.436259    7.600011    7.907674    7.168456    0.020971    0.017976    0.007456
    0.454436    7.608610    7.918067    7.176236    0.020919    0.018152    0.007530
    0.472613    7.617628    7.928980    7.184406    0.020861    0.018338    0.007608
    0.490791    7.627075    7.940428    7.192977    0.020798    0.018535    0.007690
    0.508968    7.636961    7.952424    7.201961    0.020729    0.018745    0.007778
    0.527146    7.647297    7.964987    7.211371    0.020653    0.018968    0.007871
    0.545323    7.658096    7.978132    7.221219    0.020570    0.019205    0.007970
    0.563501    7.669371    7.991878    7.231521    0.020479    0.019456    0.008075
    0.581678    7.681134    8.006247    7.242291    0.020379    0.019722    0.008186
    0.599855    7.693401    8.021258    7.253548    0.020269    0.020005    0.008305
    0.618033    7.706189    8.036937    7.265309    0.020149    0.020305    0.008430
    0.636210    7.719514    8.053308    7.277593    0.020018    0.020625    0.008563
    0.654388    7.733395    8.070399    7.290423    0.019873    0.020964    0.008705
    0.672565    7.747852    8.088237    7.303818    0.019715    0.021324    0.008855
    0.690743    7.762906    8.106853    7.317803    0.019542    0.021707    0.009015
    0.708920    7.778580    8.126280    7.332400    0.019353    0.022113    0.009185
    0.727098    7.794898    8.146549    7.347631    0.019147    0.022545    0.009366
    0.745275    7.811884    8.167691    7.363514    0.018922    0.023002    0.009559
    0.763452    7.829564    8.189736    7.380062    0.018678    0.023486    0.009764
    0.781630    7.847964    8.212706    7.397278    0.018415    0.023996    0.009981
    0.799807    7.867107    8.236615    7.415148    0.018135    0.024528    0.010212
    0.817985    7.887011    8.261456    7.433631    0.017839    0.025080    0.010455
    0.836162    7.907687    8.287200    7.452659    0.017533    0.025644    0.010711
    0.854340    7.929135    8.313790    7.472131    0.017224    0.026211    0.010977
    0.872517    7.951333    8.341131    7.491917    0.016924    0.026768    0.011252
    0.890694    7.974239    8.369099    7.511874    0.016647    0.027302    0.011530
    0.908872    7.997783    8.397539    7.531855    0.016407    0.027801    0.011808
    0.927049    8.021877    8.426283    7.551720    0.016223    0.028251    0.012078
    0.945227    8.046415    8.455154    7.571347    0.016112    0.028641    0.012333
    0.963404    8.071287    8.483985    7.590627    0.016091    0.028961    0.012566
    0.981582    8.096383    8.512626    7.609473    0.016172    0.029203    0.012771
    0.999759    8.121597    8.540948    7.627813    0.016367    0.029360    0.012942
    1.017937    8.146832    8.568844    7.645590    0.016685    0.029425    0.013072
    1.036114    8.172005    8.596232    7.662765    0.017133    0.029394    0.013158
    1.054291    8.197043    8.623048    7.679305    0.017715    0.029263    0.013195
    1.072469    8.221890    8.649250    7.695191    0.018436    0.029027    0.013180
[...]
   54.259653    0.882181    0.882117    0.882213    0.000014   -0.000011   -0.000002
   54.277830    0.882269    0.882205    0.882301    0.000014   -0.000011   -0.000002
   54.296008    0.882357    0.882293    0.882389    0.000014   -0.000011   -0.000002
   54.314185    0.882445    0.882381    0.882477    0.000014   -0.000011   -0.000002
   54.332363    0.882533    0.882469    0.882565    0.000014   -0.000011   -0.000002
   54.350540    0.882621    0.882557    0.882652    0.000014   -0.000011   -0.000002
   54.368718    0.882708    0.882644    0.882740    0.000014   -0.000011   -0.000002
   54.386895    0.882796    0.882732    0.882827    0.000014   -0.000011   -0.000002
   54.405072    0.882883    0.882819    0.882915    0.000014   -0.000011   -0.000002
   54.423250    0.882970    0.882907    0.883002    0.000014   -0.000011   -0.000002
   54.441427    0.883057    0.882994    0.883089    0.000014   -0.000011   -0.000002
   54.459605    0.883145    0.883081    0.883176    0.000014   -0.000011   -0.000002
   54.477782    0.883231    0.883168    0.883263    0.000014   -0.000011   -0.000002
   54.495960    0.883318    0.883255    0.883350    0.000014   -0.000011   -0.000002
   54.514137    0.883405    0.883341    0.883437    0.000014   -0.000011   -0.000002

 The outermost node in the dielectric function lies at epsilon=  17.5

 total charge

# of ion       s       p       d       tot
    1        0.411   0.279   9.593  10.283
    2        0.403   0.273   9.596  10.273
    3        0.335   0.317   9.367  10.019
    4        0.326   0.306   9.370  10.001
    5        0.326   0.306   9.370  10.001
    6        0.335   0.317   9.367  10.019
    7        1.112   1.065   0.122   2.299
    8        1.118   1.059   0.114   2.291
    9        1.464   2.386   0.038   3.888
   10        1.463   2.390   0.040   3.893
   11        1.463   2.390   0.039   3.891
   12        1.459   2.406   0.043   3.907
   13        1.462   2.396   0.041   3.899
   14        1.463   2.390   0.039   3.891
   15        1.463   2.390   0.040   3.893
   16        1.320   2.381   0.000   3.701
tot         15.921  23.049  57.180  96.150

 BZINTS: Fermi energy:    2.311820;  124.000000 electrons
         Band energy:-0.420612E+03;  BLOECHL correction:   -0.000000