 vasp.6.1.0 28Jan20 (build Jan 13 2021 21:44:47) complex

 executed on             LinuxIFC date 2021.03.08  12:46:00

 INCAR:
 POTCAR:    PAW_PBE Cd 06Sep2000
 POTCAR:    PAW_PBE Cu 22Jun2005
 POTCAR:    PAW_PBE Ge 05Jan2001
 POTCAR:    PAW_PBE Se 06Sep2000
 POTCAR:    PAW_PBE S 06Sep2000
|           W    W    AA    RRRRR   N    N  II  N    N   GGGG   !!!           |
|           W    W   A  A   R    R  NN   N  II  NN   N  G    G  !!!           |
|           W    W  A    A  R    R  N N  N  II  N N  N  G       !!!           |
|           W WW W  AAAAAA  RRRRR   N  N N  II  N  N N  G  GGG   !            |
|           WW  WW  A    A  R   R   N   NN  II  N   NN  G    G                |
|           W    W  A    A  R    R  N    N  II  N    N   GGGG   !!!           |
|     For optimal performance we recommend to set                             |
|       NCORE = 4 - approx SQRT(number of cores).                             |
|     This setting can greatly improve the performance of VASP for DFT.       |
|     The default, NCORE=1 might be grossly inefficient on modern             |
|     multi-core architectures or massively parallel machines. Do your        |
|     own testing!!!!                                                         |
|     Unfortunately you need to use the default for GW and RPA                |
|     calculations (for HF NCORE is supported but not extensively tested      |
|     yet).                                                                   |

 POTCAR:    PAW_PBE Cd 06Sep2000
   VRHFIN =Cd : s2 d10

   TITEL  = PAW_PBE Cd 06Sep2000
   POMASS =  112.411; ZVAL   =   12.000    mass and valenz
   ENMAX  =  274.336; ENMIN  =  205.752 eV

 POTCAR:    PAW_PBE Cu 22Jun2005
   VRHFIN =Cu: d10 p1

   TITEL  = PAW_PBE Cu 22Jun2005
   POMASS =   63.546; ZVAL   =   11.000    mass and valenz
   ENMAX  =  295.446; ENMIN  =  221.585 eV

 POTCAR:    PAW_PBE Ge 05Jan2001
   VRHFIN =Ge: s2p2

   TITEL  = PAW_PBE Ge 05Jan2001
   POMASS =   72.610; ZVAL   =    4.000    mass and valenz
   ENMAX  =  173.807; ENMIN  =  130.355 eV

 POTCAR:    PAW_PBE Se 06Sep2000
   VRHFIN =Se: s2p4

[...]

 POTCAR:    PAW_PBE S 06Sep2000
   VRHFIN =S : s2p4

   TITEL  = PAW_PBE S 06Sep2000
   POMASS =   32.066; ZVAL   =    6.000    mass and valenz
   ENMAX  =  258.689; ENMIN  =  194.016 eV

  PAW_PBE Cd 06Sep2000                  :
  PAW_PBE Cu 22Jun2005                  :
  PAW_PBE Ge 05Jan2001                  :
  PAW_PBE Se 06Sep2000                  :
  PAW_PBE S 06Sep2000                   :

 POSCAR: x 0.875
  positions in direct lattice
  velocities in cartesian coordinates
 exchange correlation table for  LEXCH =        8
   RHO(1)=    0.500       N(1)  =     2000
   RHO(2)=  100.500       N(2)  =     4000

 ion  position               nearest neighbor table
   1  0.020  0.141  1.000-  12 2.57  10 2.60  15 2.60   9 2.67
   2  0.503  0.831  0.500-  16 2.56  13 2.58  14 2.59  11 2.59
   3  0.004  0.659  0.252-  12 2.32  11 2.32  10 2.33  13 2.34
   4  0.498  0.329  0.736-  16 2.28  15 2.30  14 2.30   9 2.47
   5  0.498  0.329  0.264-  16 2.28  10 2.30  11 2.30   9 2.47
   6  0.004  0.659  0.748-  12 2.32  14 2.32  15 2.33  13 2.34
   7  0.007  0.165  0.500-  15 2.29  10 2.29  16 2.30  13 2.30
   8  0.507  0.804  1.000-  11 2.29  14 2.29  12 2.30   9 2.41
   9  0.602  0.152  1.000-   8 2.41   5 2.47   4 2.47   1 2.67
  10  0.139  0.335  0.270-   7 2.29   5 2.30   3 2.33   1 2.60
  11  0.642  0.642  0.234-   8 2.29   5 2.30   3 2.32   2 2.59
  12  0.148  0.778  1.000-   8 2.30   6 2.32   3 2.32   1 2.57
  13  0.100  0.832  0.500-   7 2.30   3 2.34   6 2.34   2 2.58
  14  0.642  0.642  0.766-   8 2.29   4 2.30   6 2.32   2 2.59
  15  0.139  0.335  0.730-   7 2.29   4 2.30   6 2.33   1 2.60
  16  0.648  0.187  0.500-   4 2.28   5 2.28   7 2.30   2 2.56

  Warning from LATTYP: Got some problem with cell dimensions!
  Tried to take original basis but could not verify dimensions!
  LATTYP: Found a triclinic cell.
 ALAT       =     6.3880680500
 B/A-ratio  =     1.4479633824
 C/A-ratio  =     1.2244310412
 COS(alpha) =     0.0000046672
 COS(beta)  =     0.0000090487
 COS(gamma) =     0.6900836886

  Lattice vectors:

 A1 = (  -6.3880675750,  -0.0024623349,   0.0000720151)
 A2 = (  -6.3856391306,   6.6918123442,   0.0001494249)
 A3 = (  -0.0001589824,   0.0000734072,  -7.8217488117)

Analysis of symmetry for initial positions (statically):
 Subroutine PRICEL returns:
 Original cell was already a primitive cell.

 Routine SETGRP: Setting up the symmetry group for a
 triclinic supercell.

 Subroutine GETGRP returns: Found  1 space group operations
 (whereof  1 operations were pure point group operations)
 out of a pool of  2 trial point group operations.

The static configuration has the point symmetry C_1 .

Analysis of symmetry for dynamics (positions and initial velocities):
 Subroutine PRICEL returns:
 Original cell was already a primitive cell.

 Routine SETGRP: Setting up the symmetry group for a
 triclinic supercell.

 Subroutine GETGRP returns: Found  1 space group operations
 (whereof  1 operations were pure point group operations)
 out of a pool of  2 trial point group operations.

The dynamic configuration has the point symmetry C_1 .

 Subroutine INISYM returns: Found  1 space group operations
 (whereof  1 operations are pure point group operations),
 and found     1 'primitive' translations

                                     Primitive cell

  volume of cell :     334.4851

  direct lattice vectors                    reciprocal lattice vectors
     6.388067575  0.002462335 -0.000072015     0.156541885 -0.000056788 -0.000003182
     0.002428444  6.694274679  0.000077410    -0.000057580  0.149381402  0.000001403
     0.000158982 -0.000073407  7.821748812     0.000001442 -0.000001479  0.127848647

  length of vectors
     6.388068050  6.694275120  7.821748814     0.156541895  0.149381414  0.127848647

  position of ions in fractional coordinates (direct lattice)
     0.019583154  0.141079683  0.999933936
     0.503064808  0.830861187  0.499931668
     0.004091729  0.658719674  0.251744600
     0.498337839  0.328686875  0.735767265
     0.498340242  0.328692745  0.264068456
     0.004089840  0.658721629  0.748119563
     0.006905103  0.164712550  0.499930014
     0.506936558  0.803740610  0.999928106
     0.602130336  0.152235767  0.999921156
     0.138736343  0.335207800  0.270292299
     0.641531774  0.642407639  0.233637103
     0.148113893  0.777874733  0.999929787
     0.099770863  0.832184573  0.499929684
     0.641531134  0.642402367  0.766219789
     0.138733644  0.335206285  0.729566845
     0.648102740  0.187265882  0.499919729

  ion indices of the primitive-cell ions
   primitive index   ion index
                 1           1
                 2           2
                 3           3
                 4           4
                 5           5
                 6           6
                 7           7
                 8           8
                 9           9
                10          10
                11          11
                12          12
                13          13
                14          14
                15          15
                16          16

 KPOINTS: elect

Automatic generation of k-mesh.
Space group operators:
 irot       det(A)        alpha          n_x          n_y          n_z        tau_x        tau_y        tau_z
    1     1.000000     0.000001     1.000000     0.000000     0.000000     0.000000     0.000000     0.000000
 TETIRR: Found    540 inequivalent tetrahedra from     1080

 Subroutine IBZKPT returns following result:

 Found     92 irreducible k-points:

 Following reciprocal coordinates:
            Coordinates               Weight
  0.000000  0.000000  0.000000      1.000000
  0.166667 -0.000000 -0.000000      2.000000
  0.333333 -0.000000  0.000000      2.000000
  0.500000  0.000000 -0.000000      1.000000
  0.000000  0.166667 -0.000000      2.000000
  0.166667  0.166667  0.000000      2.000000
  0.333333  0.166667 -0.000000      2.000000
  0.500000  0.166667 -0.000000      2.000000
 -0.333333  0.166667  0.000000      2.000000
 -0.166667  0.166667 -0.000000      2.000000
  0.000000  0.333333  0.000000      2.000000
  0.166667  0.333333 -0.000000      2.000000
  0.333333  0.333333  0.000000      2.000000
  0.500000  0.333333  0.000000      2.000000
 -0.333333  0.333333 -0.000000      2.000000
 -0.166667  0.333333  0.000000      2.000000
  0.000000  0.500000 -0.000000      1.000000
  0.166667  0.500000  0.000000      2.000000
  0.333333  0.500000  0.000000      2.000000
  0.500000  0.500000 -0.000000      1.000000
  0.000000  0.000000  0.200000      2.000000
  0.166667 -0.000000  0.200000      2.000000
  0.333333  0.000000  0.200000      2.000000
  0.500000  0.000000  0.200000      2.000000
 -0.333333 -0.000000  0.200000      2.000000
 -0.166667  0.000000  0.200000      2.000000
  0.000000  0.166667  0.200000      2.000000
  0.166667  0.166667  0.200000      2.000000
  0.333333  0.166667  0.200000      2.000000
  0.500000  0.166667  0.200000      2.000000
 -0.333333  0.166667  0.200000      2.000000
 -0.166667  0.166667  0.200000      2.000000
  0.000000  0.333333  0.200000      2.000000
  0.166667  0.333333  0.200000      2.000000
  0.333333  0.333333  0.200000      2.000000
  0.500000  0.333333  0.200000      2.000000
 -0.333333  0.333333  0.200000      2.000000
 -0.166667  0.333333  0.200000      2.000000
 -0.000000  0.500000  0.200000      2.000000
  0.166667  0.500000  0.200000      2.000000
  0.333333  0.500000  0.200000      2.000000
  0.500000  0.500000  0.200000      2.000000
 -0.333333  0.500000  0.200000      2.000000
 -0.166667  0.500000  0.200000      2.000000
 -0.000000 -0.333333  0.200000      2.000000
  0.166667 -0.333333  0.200000      2.000000
  0.333333 -0.333333  0.200000      2.000000
  0.500000 -0.333333  0.200000      2.000000
 -0.333333 -0.333333  0.200000      2.000000
 -0.166667 -0.333333  0.200000      2.000000
 -0.000000 -0.166667  0.200000      2.000000
  0.166667 -0.166667  0.200000      2.000000
  0.333333 -0.166667  0.200000      2.000000
  0.500000 -0.166667  0.200000      2.000000
 -0.333333 -0.166667  0.200000      2.000000
 -0.166667 -0.166667  0.200000      2.000000
  0.000000  0.000000  0.400000      2.000000
  0.166667  0.000000  0.400000      2.000000
  0.333333 -0.000000  0.400000      2.000000
  0.500000  0.000000  0.400000      2.000000
[...]
  0.500000  0.500000  0.400000      2.000000
 -0.333333  0.500000  0.400000      2.000000
 -0.166667  0.500000  0.400000      2.000000
  0.000000 -0.333333  0.400000      2.000000
  0.166667 -0.333333  0.400000      2.000000
  0.333333 -0.333333  0.400000      2.000000
  0.500000 -0.333333  0.400000      2.000000
 -0.333333 -0.333333  0.400000      2.000000
 -0.166667 -0.333333  0.400000      2.000000
 -0.000000 -0.166667  0.400000      2.000000
  0.166667 -0.166667  0.400000      2.000000
  0.333333 -0.166667  0.400000      2.000000
  0.500000 -0.166667  0.400000      2.000000
 -0.333333 -0.166667  0.400000      2.000000
 -0.166667 -0.166667  0.400000      2.000000

 Following cartesian coordinates:
[...]
    0.838679    6.801372    6.992518    6.323121    0.021096    0.003083    0.001398
    0.857740    6.811266    7.004019    6.331657    0.021186    0.003141    0.001425
    0.876801    6.821467    7.015894    6.340471    0.021278    0.003202    0.001454
    0.895862    6.831983    7.028155    6.349571    0.021375    0.003266    0.001484
    0.914923    6.842822    7.040813    6.358967    0.021476    0.003333    0.001516
    0.933983    6.853993    7.053880    6.368668    0.021582    0.003404    0.001549
    0.953044    6.865505    7.067370    6.378685    0.021692    0.003479    0.001584
    0.972105    6.877368    7.081295    6.389027    0.021807    0.003559    0.001621
    0.991166    6.889591    7.095671    6.399707    0.021927    0.003643    0.001661
    1.010227    6.902185    7.110514    6.410738    0.022053    0.003731    0.001702
    1.029288    6.915162    7.125841    6.422133    0.022185    0.003826    0.001746
    1.048349    6.928535    7.141670    6.433908    0.022323    0.003925    0.001793
    1.067410    6.942316    7.158021    6.446077    0.022468    0.004031    0.001842
    1.086470    6.956520    7.174916    6.458660    0.022621    0.004144    0.001894
    1.105531    6.971161    7.192377    6.471673    0.022781    0.004264    0.001949
    1.124592    6.986256    7.210429    6.485140    0.022949    0.004391    0.002008
[...]
   56.896745    0.882063    0.882017    0.882035   -0.000012    0.000003    0.000007
   56.915805    0.882152    0.882105    0.882123   -0.000012    0.000003    0.000007
   56.934866    0.882240    0.882194    0.882212   -0.000012    0.000003    0.000007
   56.953927    0.882329    0.882283    0.882300   -0.000012    0.000003    0.000006
   56.972988    0.882417    0.882371    0.882389   -0.000012    0.000003    0.000006
   56.992049    0.882505    0.882459    0.882477   -0.000012    0.000003    0.000006
   57.011110    0.882593    0.882548    0.882565   -0.000012    0.000003    0.000006
   57.030171    0.882681    0.882636    0.882654   -0.000012    0.000003    0.000006
   57.049232    0.882769    0.882724    0.882742   -0.000012    0.000003    0.000006
   57.068293    0.882857    0.882812    0.882829   -0.000012    0.000003    0.000006
   57.087353    0.882945    0.882899    0.882917   -0.000012    0.000003    0.000006
   57.106414    0.883033    0.882987    0.883005   -0.000012    0.000003    0.000006
   57.125475    0.883120    0.883075    0.883093   -0.000012    0.000003    0.000006
   57.144536    0.883207    0.883162    0.883180   -0.000012    0.000003    0.000006
   57.163597    0.883295    0.883249    0.883267   -0.000012    0.000003    0.000006

  frequency dependent IMAGINARY DIELECTRIC FUNCTION (independent particle, no local field effects) current-current
     E(ev)      X         Y         Z        XY        YZ        ZX
    0.000000   58.159288   59.814749   53.345085    0.169301    0.072983    0.037714
    0.019061   58.159288   59.814749   53.345085    0.169301    0.072983    0.037714
    0.038122   29.082525   29.910634   26.674935    0.084661    0.036516    0.018870
    0.057183   19.391553   19.944045   17.785949    0.056452    0.024372    0.012594
    0.076244   14.547030   14.961841   13.342256    0.042351    0.018308    0.009461
    0.095304   11.641089   11.973393   10.676682    0.033894    0.014676    0.007584
    0.114365    9.704440    9.981825    8.900168    0.028257    0.012260    0.006336
    0.133426    8.321675    8.559905    7.631691    0.024234    0.010540    0.005447
    0.152487    7.285089    7.494019    6.680739    0.021218    0.009254    0.004783
    0.171548    6.479291    6.665491    5.941472    0.018873    0.008258    0.004268
    0.190609    5.835048    6.003116    5.350386    0.016999    0.007464    0.003858
    0.209670    5.308300    5.461583    4.867071    0.015467    0.006818    0.003525
    0.228731    4.869678    5.010685    4.464585    0.014192    0.006283    0.003248
    0.247792    4.498845    4.629508    4.124278    0.013114    0.005833    0.003016
    0.266852    4.181279    4.303116    3.832828    0.012191    0.005450    0.002818
    0.285913    3.906329    4.020555    3.580466    0.011392    0.005121    0.002648
    0.304974    3.666006    3.773610    3.359865    0.010694    0.004836    0.002501
    0.324035    3.454203    3.555999    3.165423    0.010079    0.004587    0.002372
    0.343096    3.266168    3.362836    2.992781    0.009533    0.004368    0.002259
    0.362157    3.098152    3.190265    2.838500    0.009045    0.004174    0.002159
    0.381218    2.947154    3.035200    2.699829    0.008607    0.004002    0.002070
    0.400279    2.810747    2.895144    2.574539    0.008211    0.003849    0.001991
    0.419339    2.686943    2.768054    2.460809    0.007853    0.003712    0.001920
    0.438400    2.574101    2.652243    2.357134    0.007526    0.003589    0.001857
    0.457461    2.470854    2.546305    2.262259    0.007227    0.003479    0.001800
    0.476522    2.376053    2.449058    2.175131    0.006952    0.003380    0.001749
    0.495583    2.288728    2.359505    2.094858    0.006699    0.003291    0.001703
    0.514644    2.208050    2.276794    2.020683    0.006466    0.003211    0.001662
    0.533705    2.133311    2.200197    1.951955    0.006250    0.003139    0.001625
    0.552766    2.063900    2.129085    1.888113    0.006050    0.003074    0.001591
    0.571827    1.999287    2.062915    1.828671    0.005863    0.003017    0.001562
    0.590887    1.939011    2.001214    1.773208    0.005690    0.002965    0.001535
    0.609948    1.882670    1.943566    1.721354    0.005527    0.002919    0.001511
    0.629009    1.829909    1.889609    1.672784    0.005376    0.002879    0.001491
    0.648070    1.780418    1.839023    1.627212    0.005233    0.002844    0.001472
    0.667131    1.733918    1.791523    1.584385    0.005100    0.002814    0.001457
    0.686192    1.690165    1.746858    1.544078    0.004974    0.002788    0.001443
    0.705253    1.648941    1.704805    1.506091    0.004856    0.002767    0.001432
    0.724314    1.610051    1.665162    1.470246    0.004745    0.002750    0.001423
    0.743375    1.573319    1.627752    1.436381    0.004640    0.002737    0.001417
    0.762435    1.538589    1.592413    1.404353    0.004542    0.002729    0.001412
    0.781496    1.505719    1.559001    1.374033    0.004448    0.002724    0.001409
    0.800557    1.474581    1.527385    1.345305    0.004360    0.002724    0.001409
    0.819618    1.445061    1.497449    1.318062    0.004277    0.002727    0.001410
    0.838679    1.417053    1.469085    1.292209    0.004198    0.002735    0.001413
    0.857740    1.390463    1.442197    1.267661    0.004124    0.002747    0.001419
    0.876801    1.365204    1.416699    1.244338    0.004053    0.002763    0.001426
    0.895862    1.341199    1.392512    1.222170    0.003987    0.002783    0.001436
    0.914923    1.318376    1.369563    1.201093    0.003924    0.002808    0.001448
    0.933983    1.296671    1.347789    1.181047    0.003865    0.002838    0.001462
    0.953044    1.276023    1.327130    1.161981    0.003809    0.002873    0.001479
    0.972105    1.256381    1.307534    1.143846    0.003757    0.002913    0.001498
    0.991166    1.237694    1.288953    1.126599    0.003708    0.002959    0.001520
    1.010227    1.219918    1.271346    1.110201    0.003662    0.003011    0.001545
    1.029288    1.203013    1.254673    1.094619    0.003619    0.003070    0.001573
    1.048349    1.186944    1.238903    1.079822    0.003580    0.003136    0.001604
    1.067410    1.171677    1.224006    1.065784    0.003544    0.003211    0.001639
    1.086470    1.157184    1.209959    1.052483    0.003511    0.003294    0.001678
    1.105531    1.143440    1.196741    1.039900    0.003482    0.003387    0.001721
    1.124592    1.130422    1.184337    1.028021    0.003456    0.003491    0.001769
[...]
   56.896745    0.000051    0.000051    0.000051   -0.000000    0.000000   -0.000000
   56.915805    0.000051    0.000051    0.000051   -0.000000    0.000000   -0.000000
   56.934866    0.000051    0.000051    0.000051   -0.000000    0.000000   -0.000000
   56.953927    0.000051    0.000051    0.000051   -0.000000    0.000000   -0.000000
   56.972988    0.000050    0.000051    0.000051   -0.000000    0.000000   -0.000000
   56.992049    0.000050    0.000051    0.000051   -0.000000    0.000000   -0.000000
   57.011110    0.000050    0.000051    0.000051   -0.000000    0.000000   -0.000000
   57.030171    0.000050    0.000050    0.000050   -0.000000    0.000000   -0.000000
   57.049232    0.000050    0.000050    0.000050   -0.000000    0.000000   -0.000000
   57.068293    0.000050    0.000050    0.000050   -0.000000    0.000000   -0.000000
   57.087353    0.000050    0.000050    0.000050   -0.000000    0.000000   -0.000000
   57.106414    0.000050    0.000050    0.000050   -0.000000    0.000000   -0.000000
   57.125475    0.000050    0.000050    0.000050   -0.000000    0.000000   -0.000000
   57.144536    0.000049    0.000050    0.000050   -0.000000    0.000000   -0.000000
   57.163597    0.000049    0.000050    0.000050   -0.000000    0.000000   -0.000000

  frequency dependent      REAL DIELECTRIC FUNCTION (independent particle, no local field effects) current-current
     E(ev)        X           Y           Z          XY          YZ          ZX
    0.000000    6.532650    6.689084    6.075563    0.016098    0.006868    0.003548
    0.019061    6.532650    6.689084    6.075563    0.016098    0.006868    0.003548
    0.038122    6.532921    6.689391    6.075789    0.016099    0.006870    0.003550
    0.057183    6.533375    6.689903    6.076165    0.016101    0.006874    0.003552
    0.076244    6.534009    6.690619    6.076692    0.016103    0.006879    0.003554
    0.095304    6.534826    6.691542    6.077369    0.016106    0.006886    0.003558
    0.114365    6.535824    6.692670    6.078198    0.016110    0.006895    0.003562
    0.133426    6.537005    6.694005    6.079178    0.016114    0.006904    0.003568
    0.152487    6.538369    6.695546    6.080310    0.016119    0.006916    0.003574
    0.171548    6.539917    6.697296    6.081595    0.016125    0.006929    0.003580
    0.190609    6.541650    6.699254    6.083033    0.016131    0.006944    0.003588
    0.209670    6.543567    6.701422    6.084625    0.016138    0.006960    0.003597
    0.228731    6.545670    6.703801    6.086371    0.016145    0.006978    0.003606
    0.247792    6.547961    6.706392    6.088273    0.016154    0.006998    0.003616
    0.266852    6.550439    6.709196    6.090330    0.016163    0.007019    0.003628
    0.285913    6.553106    6.712215    6.092545    0.016172    0.007042    0.003640
    0.304974    6.555964    6.715450    6.094918    0.016183    0.007067    0.003653
    0.324035    6.559013    6.718903    6.097451    0.016194    0.007094    0.003667
    0.343096    6.562255    6.722576    6.100144    0.016205    0.007122    0.003682
    0.362157    6.565692    6.726471    6.102999    0.016218    0.007153    0.003697
    0.381218    6.569325    6.730590    6.106018    0.016231    0.007185    0.003714
    0.400279    6.573156    6.734934    6.109201    0.016245    0.007219    0.003732
    0.419339    6.577186    6.739507    6.112551    0.016260    0.007256    0.003751
    0.438400    6.581418    6.744311    6.116069    0.016275    0.007294    0.003771
    0.457461    6.585853    6.749348    6.119757    0.016291    0.007335    0.003793
    0.476522    6.590495    6.754622    6.123617    0.016308    0.007377    0.003815
    0.495583    6.595344    6.760135    6.127651    0.016325    0.007422    0.003839
    0.514644    6.600404    6.765891    6.131861    0.016344    0.007470    0.003863
    0.533705    6.605677    6.771892    6.136249    0.016363    0.007520    0.003889
    0.552766    6.611166    6.778144    6.140818    0.016383    0.007572    0.003917
    0.571827    6.616874    6.784648    6.145571    0.016403    0.007627    0.003946
    0.590887    6.622803    6.791409    6.150510    0.016425    0.007685    0.003976
    0.609948    6.628958    6.798432    6.155638    0.016447    0.007746    0.004007
    0.629009    6.635340    6.805721    6.160958    0.016470    0.007810    0.004040
    0.648070    6.641955    6.813280    6.166474    0.016494    0.007876    0.004075
    0.667131    6.648805    6.821115    6.172188    0.016519    0.007946    0.004112
    0.686192    6.655894    6.829231    6.178105    0.016545    0.008020    0.004150
    0.705253    6.663228    6.837633    6.184228    0.016572    0.008096    0.004190
    0.724314    6.670809    6.846327    6.190562    0.016599    0.008177    0.004232
    0.743375    6.678643    6.855319    6.197110    0.016628    0.008261    0.004275
    0.762435    6.686734    6.864616    6.203877    0.016657    0.008350    0.004321
    0.781496    6.695088    6.874225    6.210868    0.016688    0.008443    0.004369
    0.800557    6.703710    6.884154    6.218089    0.016719    0.008540    0.004420
    0.819618    6.712606    6.894409    6.225545    0.016752    0.008642    0.004473
    0.838679    6.721782    6.904999    6.233241    0.016785    0.008749    0.004528
    0.857740    6.731244    6.915934    6.241183    0.016820    0.008861    0.004586
    0.876801    6.740999    6.927222    6.249380    0.016856    0.008979    0.004647
    0.895862    6.751054    6.938873    6.257836    0.016893    0.009103    0.004711
    0.914923    6.761417    6.950898    6.266561    0.016932    0.009233    0.004778
    0.933983    6.772096    6.963308    6.275562    0.016972    0.009370    0.004848
    0.953044    6.783099    6.976115    6.284847    0.017013    0.009514    0.004922
    0.972105    6.794435    6.989332    6.294427    0.017055    0.009666    0.005000
    0.991166    6.806115    7.002973    6.304310    0.017099    0.009826    0.005081
    1.010227    6.818148    7.017052    6.314508    0.017145    0.009994    0.005168
    1.029288    6.830546    7.031585    6.325032    0.017192    0.010172    0.005258
    1.048349    6.843320    7.046590    6.335895    0.017242    0.010360    0.005354
    1.067410    6.856483    7.062084    6.347110    0.017293    0.010559    0.005455
    1.086470    6.870048    7.078086    6.358692    0.017346    0.010770    0.005562
    1.105531    6.884030    7.094619    6.370656    0.017401    0.010993    0.005675
    1.124592    6.898444    7.111704    6.383019    0.017458    0.011230    0.005794
[...]
   56.896745    0.882304    0.882251    0.882397   -0.000008   -0.000008   -0.000000
   56.915805    0.882393    0.882340    0.882486   -0.000008   -0.000008   -0.000000
   56.934866    0.882481    0.882428    0.882574   -0.000008   -0.000008   -0.000000
   56.953927    0.882569    0.882517    0.882662   -0.000008   -0.000008   -0.000000
   56.972988    0.882657    0.882605    0.882751   -0.000008   -0.000008   -0.000000
   56.992049    0.882746    0.882693    0.882839   -0.000008   -0.000008   -0.000000
   57.011110    0.882833    0.882781    0.882927   -0.000008   -0.000008   -0.000000
   57.030171    0.882921    0.882869    0.883014   -0.000008   -0.000008   -0.000000
   57.049232    0.883009    0.882957    0.883102   -0.000008   -0.000008   -0.000000
   57.068293    0.883097    0.883045    0.883190   -0.000008   -0.000008   -0.000000
   57.087353    0.883184    0.883132    0.883277   -0.000008   -0.000008   -0.000000
   57.106414    0.883272    0.883220    0.883365   -0.000008   -0.000008   -0.000000
   57.125475    0.883359    0.883307    0.883452   -0.000008   -0.000008   -0.000000
   57.144536    0.883446    0.883395    0.883539   -0.000008   -0.000008   -0.000000
   57.163597    0.883533    0.883482    0.883627   -0.000008   -0.000008   -0.000000

 The outermost node in the dielectric function lies at epsilon=  18.8

 total charge

# of ion       s       p       d       tot
    1        0.394   0.285   9.602  10.282
    2        0.390   0.286   9.605  10.281
    3        0.328   0.335   9.368  10.032
    4        0.341   0.349   9.364  10.054
    5        0.341   0.349   9.364  10.054
    6        0.328   0.335   9.368  10.032
    7        1.083   1.109   0.157   2.349
    8        1.089   1.109   0.150   2.348
    9        1.464   2.408   0.040   3.912
   10        1.323   2.387   0.000   3.709
   11        1.322   2.389   0.000   3.711
   12        1.320   2.392   0.000   3.713
   13        1.323   2.382   0.000   3.705
   14        1.322   2.389   0.000   3.711
   15        1.323   2.387   0.000   3.709
   16        1.317   2.403   0.000   3.720
tot         15.007  23.293  57.020  95.320

 BZINTS: Fermi energy:    3.021171;  124.000000 electrons
         Band energy:-0.343792E+03;  BLOECHL correction:   -0.000000