 vasp.6.1.0 28Jan20 (build Jan 13 2021 21:44:47) complex

 executed on             LinuxIFC date 2021.03.05  19:51:51

 INCAR:
 POTCAR:    PAW_PBE Cd 06Sep2000
 POTCAR:    PAW_PBE Cu 22Jun2005
 POTCAR:    PAW_PBE Ge 05Jan2001
 POTCAR:    PAW_PBE Se 06Sep2000
 POTCAR:    PAW_PBE S 06Sep2000
|           W    W    AA    RRRRR   N    N  II  N    N   GGGG   !!!           |
|           W    W   A  A   R    R  NN   N  II  NN   N  G    G  !!!           |
|           W    W  A    A  R    R  N N  N  II  N N  N  G       !!!           |
|           W WW W  AAAAAA  RRRRR   N  N N  II  N  N N  G  GGG   !            |
|           WW  WW  A    A  R   R   N   NN  II  N   NN  G    G                |
|           W    W  A    A  R    R  N    N  II  N    N   GGGG   !!!           |
|     For optimal performance we recommend to set                             |
|       NCORE = 4 - approx SQRT(number of cores).                             |
|     This setting can greatly improve the performance of VASP for DFT.       |
|     The default, NCORE=1 might be grossly inefficient on modern             |
|     multi-core architectures or massively parallel machines. Do your        |
|     own testing!!!!                                                         |
|     Unfortunately you need to use the default for GW and RPA                |
|     calculations (for HF NCORE is supported but not extensively tested      |
|     yet).                                                                   |

 POTCAR:    PAW_PBE Cd 06Sep2000
   VRHFIN =Cd : s2 d10

   TITEL  = PAW_PBE Cd 06Sep2000
   POMASS =  112.411; ZVAL   =   12.000    mass and valenz
   ENMAX  =  274.336; ENMIN  =  205.752 eV

 POTCAR:    PAW_PBE Cu 22Jun2005
   VRHFIN =Cu: d10 p1

   TITEL  = PAW_PBE Cu 22Jun2005
   POMASS =   63.546; ZVAL   =   11.000    mass and valenz
   ENMAX  =  295.446; ENMIN  =  221.585 eV

 POTCAR:    PAW_PBE Ge 05Jan2001
   VRHFIN =Ge: s2p2

   TITEL  = PAW_PBE Ge 05Jan2001
   POMASS =   72.610; ZVAL   =    4.000    mass and valenz
   ENMAX  =  173.807; ENMIN  =  130.355 eV

 POTCAR:    PAW_PBE Se 06Sep2000
   VRHFIN =Se: s2p4

[...]

 POTCAR:    PAW_PBE S 06Sep2000
   VRHFIN =S : s2p4

   TITEL  = PAW_PBE S 06Sep2000
   POMASS =   32.066; ZVAL   =    6.000    mass and valenz
   ENMAX  =  258.689; ENMIN  =  194.016 eV

  PAW_PBE Cd 06Sep2000                  :
  PAW_PBE Cu 22Jun2005                  :
  PAW_PBE Ge 05Jan2001                  :
  PAW_PBE Se 06Sep2000                  :
  PAW_PBE S 06Sep2000                   :

 POSCAR: x 0.25
  positions in direct lattice
  velocities in cartesian coordinates
 exchange correlation table for  LEXCH =        8
   RHO(1)=    0.500       N(1)  =     2000
   RHO(2)=  100.500       N(2)  =     4000

 ion  position               nearest neighbor table
   1  0.007  0.152  0.995-  15 2.62  12 2.67   9 2.69  10 2.71
   2  0.511  0.847  0.502-  16 2.58  13 2.68  11 2.70  14 2.70
   3  0.008  0.665  0.253-  12 2.41  13 2.42  11 2.43  10 2.44
   4  0.486  0.312  0.735-  16 2.31  15 2.31  14 2.48   9 2.49
   5  0.514  0.309  0.261-  16 2.28  10 2.45   9 2.46  11 2.47
   6  0.010  0.637  0.748-  15 2.29  12 2.43  14 2.45  13 2.46
   7  0.000  0.169  0.505-  15 2.31  16 2.33  10 2.44  13 2.44
   8  0.510  0.814  1.000-  11 2.43  14 2.43  12 2.44   9 2.44
   9  0.599  0.156  0.996-   8 2.44   5 2.46   4 2.49   1 2.69
  10  0.143  0.337  0.268-   7 2.44   3 2.44   5 2.45   1 2.71
  11  0.642  0.643  0.239-   3 2.43   8 2.43   5 2.47   2 2.70
  12  0.141  0.787  0.997-   3 2.41   6 2.43   8 2.44   1 2.67
  13  0.104  0.830  0.506-   3 2.42   7 2.44   6 2.46   2 2.68
  14  0.639  0.637  0.763-   8 2.43   6 2.45   4 2.48   2 2.70
  15  0.137  0.329  0.730-   6 2.29   4 2.31   7 2.31   1 2.62
  16  0.648  0.196  0.503-   5 2.28   4 2.31   7 2.33   2 2.58

  LATTYP: Found a triclinic cell.
 ALAT       =     6.5997500743
 B/A-ratio  =     1.5815332947
 C/A-ratio  =     1.0487459221
 COS(alpha) =     0.0006102218
 COS(beta)  =     0.0040090203
 COS(gamma) =     0.6308096745

  Lattice vectors:

 A1 = (  -6.5997335605,  -0.0133218800,   0.0063640743)
 A2 = (  -6.5920312846,  -0.0032037891,  -8.0926636891)
 A3 = (  -0.0137688783,  -6.9214420528,   0.0085082820)

Analysis of symmetry for initial positions (statically):
 Subroutine PRICEL returns:
 Original cell was already a primitive cell.

 Routine SETGRP: Setting up the symmetry group for a
 triclinic supercell.

 Subroutine GETGRP returns: Found  1 space group operations
 (whereof  1 operations were pure point group operations)
 out of a pool of  2 trial point group operations.

The static configuration has the point symmetry C_1 .

Analysis of symmetry for dynamics (positions and initial velocities):
 Subroutine PRICEL returns:
 Original cell was already a primitive cell.

 Routine SETGRP: Setting up the symmetry group for a
 triclinic supercell.

 Subroutine GETGRP returns: Found  1 space group operations
 (whereof  1 operations were pure point group operations)
 out of a pool of  2 trial point group operations.

The dynamic configuration has the point symmetry C_1 .

 Subroutine INISYM returns: Found  1 space group operations
 (whereof  1 operations are pure point group operations),
 and found     1 'primitive' translations

                                     Primitive cell

  volume of cell :     369.9586

  direct lattice vectors                    reciprocal lattice vectors
     6.599733560  0.013321880 -0.006364074     0.151522015 -0.000301247  0.000143723
     0.013768878  6.921442053 -0.008508282    -0.000291465  0.144479364  0.000180220
    -0.007702276 -0.010118091  8.099027763     0.000118757  0.000151543  0.123471913

  length of vectors
     6.599750074  6.921460977  8.099037746     0.151522383  0.144479771  0.123472063

  position of ions in fractional coordinates (direct lattice)
     0.006962861  0.151712453  0.994878825
     0.510616207  0.847423298  0.502036119
     0.008290848  0.665438759  0.252778735
     0.486006589  0.312101511  0.734516549
     0.514264104  0.309261980  0.261334819
     0.009689440  0.636895510  0.748048577
     0.000493670  0.168623633  0.505077756
     0.509538770  0.814233396  0.999662333
     0.599270742  0.156227611  0.995896339
     0.143453133  0.337039467  0.268407419
     0.641793881  0.642946327  0.238747904
     0.141046788  0.786863026  0.996986695
     0.104358978  0.829858328  0.505629680
     0.639368791  0.636600188  0.762570288
     0.136686724  0.329250938  0.729563775
     0.648158472  0.195523578  0.502704188

  ion indices of the primitive-cell ions
   primitive index   ion index
                 1           1
                 2           2
                 3           3
                 4           4
                 5           5
                 6           6
                 7           7
                 8           8
                 9           9
                10          10
                11          11
                12          12
                13          13
                14          14
                15          15
                16          16

 KPOINTS: elect

Automatic generation of k-mesh.
Space group operators:
 irot       det(A)        alpha          n_x          n_y          n_z        tau_x        tau_y        tau_z
    1     1.000000     0.000000     1.000000     0.000000     0.000000     0.000000     0.000000     0.000000
 TETIRR: Found    540 inequivalent tetrahedra from     1080

 Subroutine IBZKPT returns following result:

 Found     92 irreducible k-points:

 Following reciprocal coordinates:
            Coordinates               Weight
  0.000000  0.000000  0.000000      1.000000
  0.166667  0.000000 -0.000000      2.000000
  0.333333 -0.000000  0.000000      2.000000
  0.500000 -0.000000  0.000000      1.000000
  0.000000  0.166667  0.000000      2.000000
  0.166667  0.166667  0.000000      2.000000
  0.333333  0.166667 -0.000000      2.000000
  0.500000  0.166667 -0.000000      2.000000
 -0.333333  0.166667  0.000000      2.000000
 -0.166667  0.166667 -0.000000      2.000000
  0.000000  0.333333 -0.000000      2.000000
  0.166667  0.333333 -0.000000      2.000000
  0.333333  0.333333  0.000000      2.000000
  0.500000  0.333333  0.000000      2.000000
 -0.333333  0.333333 -0.000000      2.000000
 -0.166667  0.333333  0.000000      2.000000
  0.000000  0.500000  0.000000      1.000000
  0.166667  0.500000  0.000000      2.000000
  0.333333  0.500000 -0.000000      2.000000
  0.500000  0.500000 -0.000000      1.000000
 -0.000000 -0.000000  0.200000      2.000000
  0.166667  0.000000  0.200000      2.000000
  0.333333 -0.000000  0.200000      2.000000
  0.500000 -0.000000  0.200000      2.000000
 -0.333333  0.000000  0.200000      2.000000
 -0.166667 -0.000000  0.200000      2.000000
  0.000000  0.166667  0.200000      2.000000
  0.166667  0.166667  0.200000      2.000000
  0.333333  0.166667  0.200000      2.000000
  0.500000  0.166667  0.200000      2.000000
 -0.333333  0.166667  0.200000      2.000000
 -0.166667  0.166667  0.200000      2.000000
  0.000000  0.333333  0.200000      2.000000
  0.166667  0.333333  0.200000      2.000000
  0.333333  0.333333  0.200000      2.000000
  0.500000  0.333333  0.200000      2.000000
 -0.333333  0.333333  0.200000      2.000000
 -0.166667  0.333333  0.200000      2.000000
  0.000000  0.500000  0.200000      2.000000
  0.166667  0.500000  0.200000      2.000000
  0.333333  0.500000  0.200000      2.000000
  0.500000  0.500000  0.200000      2.000000
 -0.333333  0.500000  0.200000      2.000000
 -0.166667  0.500000  0.200000      2.000000
 -0.000000 -0.333333  0.200000      2.000000
  0.166667 -0.333333  0.200000      2.000000
  0.333333 -0.333333  0.200000      2.000000
  0.500000 -0.333333  0.200000      2.000000
 -0.333333 -0.333333  0.200000      2.000000
 -0.166667 -0.333333  0.200000      2.000000
  0.000000 -0.166667  0.200000      2.000000
  0.166667 -0.166667  0.200000      2.000000
  0.333333 -0.166667  0.200000      2.000000
  0.500000 -0.166667  0.200000      2.000000
 -0.333333 -0.166667  0.200000      2.000000
 -0.166667 -0.166667  0.200000      2.000000
 -0.000000 -0.000000  0.400000      2.000000
  0.166667 -0.000000  0.400000      2.000000
  0.333333 -0.000000  0.400000      2.000000
  0.500000 -0.000000  0.400000      2.000000
[...]
  0.500000  0.500000  0.400000      2.000000
 -0.333333  0.500000  0.400000      2.000000
 -0.166667  0.500000  0.400000      2.000000
 -0.000000 -0.333333  0.400000      2.000000
  0.166667 -0.333333  0.400000      2.000000
  0.333333 -0.333333  0.400000      2.000000
  0.500000 -0.333333  0.400000      2.000000
 -0.333333 -0.333333  0.400000      2.000000
 -0.166667 -0.333333  0.400000      2.000000
 -0.000000 -0.166667  0.400000      2.000000
  0.166667 -0.166667  0.400000      2.000000
  0.333333 -0.166667  0.400000      2.000000
  0.500000 -0.166667  0.400000      2.000000
 -0.333333 -0.166667  0.400000      2.000000
 -0.166667 -0.166667  0.400000      2.000000

 Following cartesian coordinates:
            Coordinates               Weight
  0.000000  0.000000  0.000000      1.000000
  0.025254 -0.000050  0.000024      2.000000
[...]
    0.807305    7.894631    8.304553    7.452815   -0.010685   -0.055816   -0.022924
    0.825653    7.913885    8.329813    7.473113   -0.011104   -0.056288   -0.023043
    0.844001    7.933902    8.356189    7.494347   -0.011559   -0.056783   -0.023167
    0.862348    7.954716    8.383734    7.516549   -0.012051   -0.057301   -0.023296
    0.880696    7.976365    8.412500    7.539735   -0.012583   -0.057838   -0.023430
    0.899044    7.998884    8.442535    7.563900   -0.013156   -0.058391   -0.023569
    0.917392    8.022314    8.473874    7.589011   -0.013771   -0.058953   -0.023712
    0.935740    8.046690    8.506540    7.615004   -0.014428   -0.059512   -0.023860
    0.954088    8.072043    8.540536    7.641790   -0.015122   -0.060059   -0.024011
    0.972436    8.098400    8.575838    7.669256   -0.015847   -0.060583   -0.024167
    0.990783    8.125772    8.612391    7.697275   -0.016593   -0.061074   -0.024326
    1.009131    8.154159    8.650110    7.725714   -0.017347   -0.061524   -0.024488
    1.027479    8.183549    8.688881    7.754431   -0.018091   -0.061929   -0.024653
    1.045827    8.213910    8.728570    7.783285   -0.018808   -0.062285   -0.024821
    1.064175    8.245203    8.769027    7.812132   -0.019479   -0.062590   -0.024991
    1.082523    8.277373    8.810098    7.840827   -0.020084   -0.062844   -0.025165
[...]
   54.768303    0.882302    0.882255    0.882213    0.000045   -0.000003   -0.000015
   54.786650    0.882390    0.882343    0.882301    0.000045   -0.000003   -0.000015
   54.804998    0.882478    0.882431    0.882389    0.000045   -0.000003   -0.000015
   54.823346    0.882565    0.882519    0.882477    0.000045   -0.000003   -0.000015
   54.841694    0.882653    0.882607    0.882564    0.000045   -0.000003   -0.000015
   54.860042    0.882741    0.882694    0.882652    0.000045   -0.000003   -0.000015
   54.878390    0.882828    0.882782    0.882740    0.000045   -0.000003   -0.000015
   54.896737    0.882915    0.882869    0.882827    0.000045   -0.000003   -0.000015
   54.915085    0.883003    0.882957    0.882914    0.000045   -0.000003   -0.000015
   54.933433    0.883090    0.883044    0.883002    0.000045   -0.000003   -0.000015
   54.951781    0.883177    0.883131    0.883089    0.000045   -0.000003   -0.000015
   54.970129    0.883264    0.883218    0.883176    0.000045   -0.000003   -0.000015
   54.988477    0.883351    0.883305    0.883263    0.000045   -0.000003   -0.000015
   55.006824    0.883437    0.883392    0.883350    0.000045   -0.000003   -0.000015
   55.025172    0.883524    0.883478    0.883436    0.000045   -0.000003   -0.000015

  frequency dependent IMAGINARY DIELECTRIC FUNCTION (independent particle, no local field effects) current-current
     E(ev)      X         Y         Z        XY        YZ        ZX
    0.000000   69.482496   72.755744   64.434222   -0.054309   -0.384905   -0.149104
    0.018348   69.482496   72.755744   64.434222   -0.054309   -0.384905   -0.149104
    0.036696   34.746167   36.383800   32.221478   -0.027187   -0.192483   -0.074554
    0.055044   23.169581   24.262459   21.485842   -0.018161   -0.128357   -0.049704
    0.073391   17.382935   18.203775   16.119487   -0.013659   -0.096304   -0.037280
    0.091739   13.912270   14.570162   12.900850   -0.010967   -0.077080   -0.029826
    0.110087   11.599602   12.149091   10.756079   -0.009181   -0.064271   -0.024857
    0.128435    9.948652   10.420911    9.224950   -0.007911   -0.055128   -0.021308
    0.146783    8.711281    9.125796    8.077355   -0.006966   -0.048275   -0.018646
    0.165131    7.749637    8.119400    7.185455   -0.006236   -0.042950   -0.016576
    0.183478    6.981008    7.315117    6.472550   -0.005658   -0.038694   -0.014919
    0.201826    6.352760    6.657834    5.889828   -0.005190   -0.035215   -0.013564
    0.220174    5.829806    6.110812    5.404753   -0.004805   -0.032319   -0.012435
    0.238522    5.387852    5.648617    4.994797   -0.004485   -0.029871   -0.011479
    0.256870    5.009551    5.253080    4.643872   -0.004215   -0.027776   -0.010659
    0.275218    4.682178    4.910883    4.340179   -0.003987   -0.025962   -0.009948
    0.293565    4.396192    4.612035    4.074871   -0.003791   -0.024378   -0.009326
    0.311913    4.144299    4.348897    3.841182   -0.003624   -0.022982   -0.008776
    0.330261    3.920823    4.115530    3.633853   -0.003481   -0.021742   -0.008287
    0.348609    3.721287    3.907246    3.448729   -0.003358   -0.020635   -0.007849
    0.366957    3.542108    3.720296    3.282491   -0.003253   -0.019640   -0.007454
    0.385305    3.380387    3.551644    3.132450   -0.003164   -0.018741   -0.007096
    0.403652    3.233753    3.398811    2.996409   -0.003089   -0.017925   -0.006770
    0.422000    3.100248    3.259747    2.872552   -0.003026   -0.017180   -0.006471
    0.440348    2.978241    3.132746    2.759368   -0.002975   -0.016499   -0.006196
    0.458696    2.866363    3.016377    2.655589   -0.002935   -0.015873   -0.005942
    0.477044    2.763456    2.909431    2.560144   -0.002906   -0.015295   -0.005706
    0.495392    2.668535    2.810877    2.472119   -0.002886   -0.014761   -0.005487
    0.513740    2.580756    2.719837    2.390735   -0.002876   -0.014265   -0.005281
    0.532087    2.499394    2.635552    2.315322   -0.002875   -0.013803   -0.005089
    0.550435    2.423821    2.557369    2.245298   -0.002884   -0.013371   -0.004907
    0.568783    2.353489    2.484720    2.180161   -0.002902   -0.012967   -0.004735
    0.587131    2.287924    2.417110    2.119473   -0.002930   -0.012588   -0.004572
    0.605479    2.226709    2.354109    2.062851   -0.002968   -0.012231   -0.004416
    0.623827    2.169476    2.295338    2.009960   -0.003017   -0.011894   -0.004267
    0.642174    2.115903    2.240465    1.960507   -0.003077   -0.011574   -0.004124
    0.660522    2.065705    2.189202    1.914235   -0.003149   -0.011271   -0.003986
    0.678870    2.018630    2.141291    1.870918   -0.003234   -0.010982   -0.003851
    0.697218    1.974456    2.096511    1.830359   -0.003334   -0.010706   -0.003720
    0.715566    1.932985    2.054667    1.792387   -0.003450   -0.010441   -0.003591
    0.733914    1.894043    2.015592    1.756857   -0.003583   -0.010186   -0.003464
    0.752261    1.857477    1.979142    1.723643   -0.003736   -0.009941   -0.003338
    0.770609    1.823152    1.945196    1.692642   -0.003912   -0.009702   -0.003212
    0.788957    1.790952    1.913659    1.663774   -0.004114   -0.009470   -0.003085
    0.807305    1.760777    1.884454    1.636979   -0.004346   -0.009243   -0.002956
    0.825653    1.732542    1.857532    1.612220   -0.004613   -0.009020   -0.002824
    0.844001    1.706181    1.832864    1.589482   -0.004920   -0.008800   -0.002687
    0.862348    1.681641    1.810446    1.568772   -0.005275   -0.008580   -0.002544
    0.880696    1.658890    1.790298    1.550114   -0.005686   -0.008359   -0.002394
    0.899044    1.637908    1.772458    1.533543   -0.006162   -0.008134   -0.002233
    0.917392    1.618700    1.756978    1.519093   -0.006713   -0.007901   -0.002060
    0.935740    1.601283    1.743919    1.506783   -0.007350   -0.007654   -0.001871
    0.954088    1.585694    1.733338    1.496608   -0.008082   -0.007385   -0.001662
    0.972436    1.571981    1.725285    1.488535   -0.008918   -0.007086   -0.001430
    0.990783    1.560191    1.719791    1.482507   -0.009865   -0.006747   -0.001170
    1.009131    1.550368    1.716863    1.478445   -0.010926   -0.006360   -0.000880
    1.027479    1.542536    1.716476    1.476258   -0.012100   -0.005920   -0.000557
    1.045827    1.536699    1.718577    1.475843   -0.013382   -0.005423   -0.000200
    1.064175    1.532843    1.723086    1.477095   -0.014765   -0.004868    0.000189
    1.082523    1.530930    1.729902    1.479906   -0.016238   -0.004257    0.000611
[...]
   54.768303    0.000050    0.000050    0.000050    0.000000   -0.000000    0.000000
   54.786650    0.000050    0.000050    0.000050    0.000000   -0.000000    0.000000
   54.804998    0.000050    0.000050    0.000050    0.000000   -0.000000    0.000000
   54.823346    0.000050    0.000050    0.000050    0.000000   -0.000000    0.000000
   54.841694    0.000050    0.000050    0.000050    0.000000   -0.000000    0.000000
   54.860042    0.000049    0.000050    0.000050    0.000000   -0.000000    0.000000
   54.878390    0.000049    0.000050    0.000050    0.000000   -0.000000    0.000000
   54.896737    0.000049    0.000049    0.000050    0.000000   -0.000000    0.000000
   54.915085    0.000049    0.000049    0.000049    0.000000   -0.000000    0.000000
   54.933433    0.000049    0.000049    0.000049    0.000000   -0.000000    0.000000
   54.951781    0.000049    0.000049    0.000049    0.000000   -0.000000    0.000000
   54.970129    0.000049    0.000049    0.000049    0.000000   -0.000000    0.000000
   54.988477    0.000049    0.000049    0.000049    0.000000   -0.000000    0.000000
   55.006824    0.000049    0.000049    0.000049    0.000000   -0.000000    0.000000
   55.025172    0.000048    0.000049    0.000049    0.000000   -0.000000    0.000000

  frequency dependent      REAL DIELECTRIC FUNCTION (independent particle, no local field effects) current-current
     E(ev)        X           Y           Z          XY          YZ          ZX
    0.000000    7.356184    7.652746    6.895080   -0.004860   -0.035197   -0.013673
    0.018348    7.356184    7.652746    6.895080   -0.004860   -0.035197   -0.013673
    0.036696    7.356627    7.653278    6.895471   -0.004863   -0.035200   -0.013673
    0.055044    7.357365    7.654165    6.896125   -0.004867   -0.035205   -0.013673
    0.073391    7.358400    7.655407    6.897040   -0.004874   -0.035212   -0.013674
    0.091739    7.359731    7.657006    6.898218   -0.004882   -0.035221   -0.013675
    0.110087    7.361360    7.658964    6.899660   -0.004892   -0.035231   -0.013675
    0.128435    7.363287    7.661281    6.901367   -0.004904   -0.035244   -0.013676
    0.146783    7.365515    7.663960    6.903341   -0.004917   -0.035258   -0.013677
    0.165131    7.368045    7.667002    6.905582   -0.004933   -0.035275   -0.013679
    0.183478    7.370879    7.670412    6.908094   -0.004951   -0.035293   -0.013680
    0.201826    7.374019    7.674191    6.910877   -0.004971   -0.035313   -0.013681
    0.220174    7.377466    7.678343    6.913936   -0.004994   -0.035335   -0.013683
    0.238522    7.381225    7.682871    6.917271   -0.005019   -0.035359   -0.013684
    0.256870    7.385297    7.687780    6.920887   -0.005046   -0.035384   -0.013685
    0.275218    7.389687    7.693074    6.924786   -0.005075   -0.035412   -0.013687
    0.293565    7.394396    7.698758    6.928972   -0.005108   -0.035441   -0.013688
    0.311913    7.399429    7.704838    6.933449   -0.005143   -0.035472   -0.013689
    0.330261    7.404790    7.711317    6.938221   -0.005182   -0.035505   -0.013690
    0.348609    7.410483    7.718204    6.943292   -0.005223   -0.035539   -0.013691
    0.366957    7.416513    7.725505    6.948668   -0.005268   -0.035575   -0.013692
    0.385305    7.422884    7.733226    6.954354   -0.005317   -0.035613   -0.013692
    0.403652    7.429603    7.741377    6.960356   -0.005369   -0.035652   -0.013692
    0.422000    7.436675    7.749964    6.966679   -0.005425   -0.035693   -0.013692
    0.440348    7.444106    7.758997    6.973331   -0.005486   -0.035735   -0.013691
    0.458696    7.451902    7.768486    6.980318   -0.005552   -0.035779   -0.013690
    0.477044    7.460071    7.778440    6.987649   -0.005622   -0.035824   -0.013688
    0.495392    7.468621    7.788872    6.995332   -0.005698   -0.035870   -0.013686
    0.513740    7.477559    7.799793    7.003376   -0.005780   -0.035917   -0.013682
    0.532087    7.486894    7.811216    7.011790   -0.005868   -0.035966   -0.013678
    0.550435    7.496636    7.823155    7.020586   -0.005963   -0.036015   -0.013673
    0.568783    7.506794    7.835625    7.029774   -0.006065   -0.036065   -0.013667
    0.587131    7.517379    7.848641    7.039367   -0.006174   -0.036116   -0.013659
    0.605479    7.528402    7.862222    7.049378   -0.006293   -0.036168   -0.013650
    0.623827    7.539876    7.876385    7.059821   -0.006420   -0.036220   -0.013639
    0.642174    7.551815    7.891151    7.070711   -0.006558   -0.036272   -0.013627
    0.660522    7.564231    7.906541    7.082067   -0.006706   -0.036325   -0.013612
    0.678870    7.577141    7.922579    7.093904   -0.006866   -0.036377   -0.013596
    0.697218    7.590560    7.939289    7.106242   -0.007039   -0.036428   -0.013577
    0.715566    7.604506    7.956698    7.119103   -0.007226   -0.036479   -0.013555
    0.733914    7.618999    7.974835    7.132507   -0.007429   -0.036529   -0.013530
    0.752261    7.634057    7.993730    7.146477   -0.007647   -0.036578   -0.013502
    0.770609    7.649704    8.013415    7.161037   -0.007884   -0.036624   -0.013470
    0.788957    7.665962    8.033924    7.176208   -0.008140   -0.036668   -0.013434
    0.807305    7.682856    8.055289    7.192013   -0.008416   -0.036709   -0.013394
    0.825653    7.700411    8.077542    7.208467   -0.008715   -0.036745   -0.013348
    0.844001    7.718655    8.100710    7.225578   -0.009035   -0.036776   -0.013297
    0.862348    7.737614    8.124813    7.243339   -0.009379   -0.036801   -0.013240
    0.880696    7.757316    8.149857    7.261723   -0.009744   -0.036817   -0.013176
    0.899044    7.777782    8.175829    7.280673   -0.010128   -0.036822   -0.013106
    0.917392    7.799031    8.202692    7.300104   -0.010527   -0.036813   -0.013028
    0.935740    7.821068    8.230381    7.319900   -0.010933   -0.036788   -0.012944
    0.954088    7.843883    8.258804    7.339931   -0.011337   -0.036748   -0.012854
    0.972436    7.867446    8.287844    7.360057   -0.011725   -0.036693   -0.012761
    0.990783    7.891698    8.317357    7.380143   -0.012082   -0.036627   -0.012667
    1.009131    7.916557    8.347184    7.400068   -0.012391   -0.036559   -0.012577
    1.027479    7.941922    8.377156    7.419721   -0.012631   -0.036498   -0.012496
    1.045827    7.967680    8.407111    7.439011   -0.012786   -0.036454   -0.012429
    1.064175    7.993717    8.436897    7.457861   -0.012838   -0.036440   -0.012383
    1.082523    8.019920    8.466382    7.476211   -0.012774   -0.036464   -0.012363
[...]
   54.768303    0.882676    0.882606    0.882707    0.000051   -0.000010   -0.000025
   54.786650    0.882764    0.882693    0.882795    0.000051   -0.000010   -0.000025
   54.804998    0.882852    0.882781    0.882883    0.000051   -0.000010   -0.000025
   54.823346    0.882939    0.882869    0.882970    0.000051   -0.000010   -0.000025
   54.841694    0.883027    0.882956    0.883058    0.000051   -0.000010   -0.000025
   54.860042    0.883114    0.883044    0.883145    0.000051   -0.000010   -0.000025
   54.878390    0.883201    0.883131    0.883232    0.000051   -0.000010   -0.000025
   54.896737    0.883288    0.883218    0.883319    0.000051   -0.000010   -0.000025
   54.915085    0.883375    0.883305    0.883406    0.000051   -0.000010   -0.000025
   54.933433    0.883462    0.883392    0.883493    0.000051   -0.000010   -0.000025
   54.951781    0.883549    0.883479    0.883580    0.000051   -0.000010   -0.000025
   54.970129    0.883636    0.883566    0.883667    0.000051   -0.000010   -0.000024
   54.988477    0.883722    0.883652    0.883753    0.000051   -0.000010   -0.000024
   55.006824    0.883809    0.883739    0.883840    0.000051   -0.000010   -0.000024
   55.025172    0.883895    0.883826    0.883926    0.000051   -0.000010   -0.000024

 The outermost node in the dielectric function lies at epsilon=  17.6

 total charge

# of ion       s       p       d       tot
    1        0.404   0.273   9.596  10.273
    2        0.405   0.279   9.596  10.280
    3        0.337   0.322   9.366  10.025
    4        0.326   0.313   9.369  10.008
    5        0.329   0.312   9.368  10.010
    6        0.333   0.320   9.368  10.021
    7        1.105   1.066   0.130   2.301
    8        1.115   1.070   0.117   2.302
    9        1.464   2.388   0.038   3.890
   10        1.463   2.388   0.040   3.891
   11        1.463   2.394   0.040   3.897
   12        1.459   2.408   0.043   3.910
   13        1.462   2.396   0.041   3.899
   14        1.463   2.393   0.039   3.895
   15        1.322   2.378   0.000   3.700
   16        1.320   2.383   0.000   3.702
tot         15.772  23.083  57.150  96.004

 BZINTS: Fermi energy:    2.432242;  124.000000 electrons
         Band energy:-0.408862E+03;  BLOECHL correction:   -0.000000