 vasp.6.1.0 28Jan20 (build Jan 13 2021 21:44:47) complex

 executed on             LinuxIFC date 2021.01.29  09:22:10

 INCAR:
 POTCAR:    PAW_PBE Cd 06Sep2000
 POTCAR:    PAW_PBE Cu 22Jun2005
 POTCAR:    PAW_PBE Ge 05Jan2001
 POTCAR:    PAW_PBE S 06Sep2000
|           W    W    AA    RRRRR   N    N  II  N    N   GGGG   !!!           |
|           W    W   A  A   R    R  NN   N  II  NN   N  G    G  !!!           |
|           W    W  A    A  R    R  N N  N  II  N N  N  G       !!!           |
|           W WW W  AAAAAA  RRRRR   N  N N  II  N  N N  G  GGG   !            |
|           WW  WW  A    A  R   R   N   NN  II  N   NN  G    G                |
|           W    W  A    A  R    R  N    N  II  N    N   GGGG   !!!           |
|     For optimal performance we recommend to set                             |
|       NCORE = 4 - approx SQRT(number of cores).                             |
|     This setting can greatly improve the performance of VASP for DFT.       |
|     The default, NCORE=1 might be grossly inefficient on modern             |
|     multi-core architectures or massively parallel machines. Do your        |
|     own testing!!!!                                                         |
|     Unfortunately you need to use the default for GW and RPA                |
|     calculations (for HF NCORE is supported but not extensively tested      |
|     yet).                                                                   |

 POTCAR:    PAW_PBE Cd 06Sep2000
   VRHFIN =Cd : s2 d10

   TITEL  = PAW_PBE Cd 06Sep2000
   POMASS =  112.411; ZVAL   =   12.000    mass and valenz
   ENMAX  =  274.336; ENMIN  =  205.752 eV

 POTCAR:    PAW_PBE Cu 22Jun2005
   VRHFIN =Cu: d10 p1

   TITEL  = PAW_PBE Cu 22Jun2005
   POMASS =   63.546; ZVAL   =   11.000    mass and valenz
   ENMAX  =  295.446; ENMIN  =  221.585 eV

 POTCAR:    PAW_PBE Ge 05Jan2001
   VRHFIN =Ge: s2p2

   TITEL  = PAW_PBE Ge 05Jan2001
   POMASS =   72.610; ZVAL   =    4.000    mass and valenz
   ENMAX  =  173.807; ENMIN  =  130.355 eV

 POTCAR:    PAW_PBE S 06Sep2000
   VRHFIN =S : s2p4

   TITEL  = PAW_PBE S 06Sep2000
   POMASS =   32.066; ZVAL   =    6.000    mass and valenz
   ENMAX  =  258.689; ENMIN  =  194.016 eV

  PAW_PBE Cd 06Sep2000                  :
  PAW_PBE Cu 22Jun2005                  :
  PAW_PBE Ge 05Jan2001                  :
  PAW_PBE S 06Sep2000                   :

 POSCAR: cd2 cu4 ge2 s8
  positions in direct lattice
  velocities in cartesian coordinates
 exchange correlation table for  LEXCH =        8
   RHO(1)=    0.500       N(1)  =     2000
   RHO(2)=  100.500       N(2)  =     4000

 ion  position               nearest neighbor table
   1  0.005  0.146  1.000-  12 2.56   9 2.57  10 2.58  15 2.58
   2  0.505  0.832  0.500-  16 2.56  13 2.57  11 2.58  14 2.58
   3  0.004  0.660  0.251-  12 2.31  11 2.32  10 2.33  13 2.33
   4  0.504  0.318  0.751-  16 2.31  15 2.32  14 2.33   9 2.33
   5  0.504  0.318  0.249-  16 2.31  10 2.32  11 2.33   9 2.33
   6  0.004  0.660  0.749-  12 2.31  14 2.32  15 2.33  13 2.33
   7  0.007  0.166  0.500-  15 2.29  10 2.29  13 2.29  16 2.29
   8  0.507  0.812  1.000-  14 2.29  11 2.29   9 2.29  12 2.29
   9  0.600  0.146  1.000-   8 2.29   5 2.33   4 2.33   1 2.57
  10  0.141  0.334  0.268-   7 2.29   5 2.32   3 2.33   1 2.58
  11  0.641  0.643  0.232-   8 2.29   3 2.32   5 2.33   2 2.58
  12  0.148  0.784  1.000-   8 2.29   3 2.31   6 2.31   1 2.56
  13  0.100  0.831  0.500-   7 2.29   6 2.33   3 2.33   2 2.57
  14  0.641  0.643  0.768-   8 2.29   6 2.32   4 2.33   2 2.58
  15  0.141  0.334  0.732-   7 2.29   4 2.32   6 2.33   1 2.58
  16  0.648  0.193  0.500-   7 2.29   4 2.31   5 2.31   2 2.56

  LATTYP: Found a triclinic cell.
 ALAT       =     9.1839479427
 B/A-ratio  =     0.6925217096
 C/A-ratio  =     1.1130869123
 COS(alpha) =     0.0000032004
 COS(beta)  =     0.4675480674
 COS(gamma) =     0.6925142480

  Lattice vectors:

 A1 = (   6.3604046101,   6.6249643536,   0.0005677826)
 A2 = (   6.3600833084,  -0.0003742324,   0.0003690692)
 A3 = (   0.0008743092,   6.6255103275,  -7.7847786040)

Analysis of symmetry for initial positions (statically):
 Subroutine PRICEL returns:
 Original cell was already a primitive cell.

 Routine SETGRP: Setting up the symmetry group for a
 triclinic supercell.

 Subroutine GETGRP returns: Found  1 space group operations
 (whereof  1 operations were pure point group operations)
 out of a pool of  2 trial point group operations.

The static configuration has the point symmetry C_1 .

Analysis of symmetry for dynamics (positions and initial velocities):
 Subroutine PRICEL returns:
 Original cell was already a primitive cell.

 Routine SETGRP: Setting up the symmetry group for a
 triclinic supercell.

 Subroutine GETGRP returns: Found  1 space group operations
 (whereof  1 operations were pure point group operations)
 out of a pool of  2 trial point group operations.

The dynamic configuration has the point symmetry C_1 .

 Subroutine INISYM returns: Found  1 space group operations
 (whereof  1 operations are pure point group operations),
 and found     1 'primitive' translations

                                     Primitive cell

  volume of cell :     328.0411

  direct lattice vectors                    reciprocal lattice vectors
     6.360083308 -0.000374232  0.000369069     0.157230644 -0.000007625  0.000011169
     0.000321302  6.625338586  0.000198713     0.000008881  0.150935682  0.000003330
    -0.000553007 -0.000171741  7.784977317    -0.000007454 -0.000003852  0.128452525

  length of vectors
     6.360083330  6.625338597  7.784977339     0.157230644  0.150935682  0.128452525

  position of ions in fractional coordinates (direct lattice)
     0.004810184  0.145726675  0.999937742
     0.504822421  0.831785229  0.499919155
     0.004087365  0.659977037  0.250708537
     0.504009724  0.317525409  0.750747538
     0.503994430  0.317511458  0.249098611
     0.004053028  0.659967734  0.749128918
     0.007346414  0.165545694  0.499937348
     0.507403055  0.811936856  0.999933074
     0.600469687  0.146194571  0.999927998
     0.140655016  0.334439458  0.268298186
     0.640697021  0.643042218  0.231571733
     0.147949868  0.784215864  0.999918054
     0.100464299  0.831304269  0.499925819
     0.640680706  0.643055848  0.768286136
     0.140658429  0.334441160  0.731572343
     0.647898353  0.193330518  0.499928807

  ion indices of the primitive-cell ions
   primitive index   ion index
                 1           1
                 2           2
                 3           3
                 4           4
                 5           5
                 6           6
                 7           7
                 8           8
                 9           9
                10          10
                11          11
                12          12
                13          13
                14          14
                15          15
                16          16

 KPOINTS: elect

Automatic generation of k-mesh.
Space group operators:
 irot       det(A)        alpha          n_x          n_y          n_z        tau_x        tau_y        tau_z
    1     1.000000     0.000000     1.000000     0.000000     0.000000     0.000000     0.000000     0.000000
 TETIRR: Found    540 inequivalent tetrahedra from     1080

 Subroutine IBZKPT returns following result:

 Found     92 irreducible k-points:

 Following reciprocal coordinates:
            Coordinates               Weight
  0.000000  0.000000  0.000000      1.000000
  0.166667  0.000000  0.000000      2.000000
  0.333333  0.000000 -0.000000      2.000000
  0.500000  0.000000  0.000000      1.000000
  0.000000  0.166667 -0.000000      2.000000
  0.166667  0.166667  0.000000      2.000000
  0.333333  0.166667 -0.000000      2.000000
  0.500000  0.166667 -0.000000      2.000000
 -0.333333  0.166667  0.000000      2.000000
 -0.166667  0.166667  0.000000      2.000000
 -0.000000  0.333333  0.000000      2.000000
  0.166667  0.333333 -0.000000      2.000000
  0.333333  0.333333  0.000000      2.000000
  0.500000  0.333333 -0.000000      2.000000
 -0.333333  0.333333  0.000000      2.000000
 -0.166667  0.333333 -0.000000      2.000000
 -0.000000  0.500000 -0.000000      1.000000
  0.166667  0.500000  0.000000      2.000000
  0.333333  0.500000 -0.000000      2.000000
  0.500000  0.500000  0.000000      1.000000
  0.000000  0.000000  0.200000      2.000000
  0.166667  0.000000  0.200000      2.000000
  0.333333  0.000000  0.200000      2.000000
  0.500000 -0.000000  0.200000      2.000000
 -0.333333 -0.000000  0.200000      2.000000
 -0.166667 -0.000000  0.200000      2.000000
 -0.000000  0.166667  0.200000      2.000000
  0.166667  0.166667  0.200000      2.000000
  0.333333  0.166667  0.200000      2.000000
  0.500000  0.166667  0.200000      2.000000
 -0.333333  0.166667  0.200000      2.000000
 -0.166667  0.166667  0.200000      2.000000
 -0.000000  0.333333  0.200000      2.000000
  0.166667  0.333333  0.200000      2.000000
  0.333333  0.333333  0.200000      2.000000
  0.500000  0.333333  0.200000      2.000000
 -0.333333  0.333333  0.200000      2.000000
 -0.166667  0.333333  0.200000      2.000000
 -0.000000  0.500000  0.200000      2.000000
  0.166667  0.500000  0.200000      2.000000
  0.333333  0.500000  0.200000      2.000000
  0.500000  0.500000  0.200000      2.000000
 -0.333333  0.500000  0.200000      2.000000
 -0.166667  0.500000  0.200000      2.000000
  0.000000 -0.333333  0.200000      2.000000
  0.166667 -0.333333  0.200000      2.000000
  0.333333 -0.333333  0.200000      2.000000
  0.500000 -0.333333  0.200000      2.000000
 -0.333333 -0.333333  0.200000      2.000000
 -0.166667 -0.333333  0.200000      2.000000
 -0.000000 -0.166667  0.200000      2.000000
  0.166667 -0.166667  0.200000      2.000000
  0.333333 -0.166667  0.200000      2.000000
  0.500000 -0.166667  0.200000      2.000000
 -0.333333 -0.166667  0.200000      2.000000
 -0.166667 -0.166667  0.200000      2.000000
  0.000000  0.000000  0.400000      2.000000
  0.166667  0.000000  0.400000      2.000000
  0.333333  0.000000  0.400000      2.000000
  0.500000  0.000000  0.400000      2.000000
[...]
  0.500000  0.500000  0.400000      2.000000
 -0.333333  0.500000  0.400000      2.000000
 -0.166667  0.500000  0.400000      2.000000
 -0.000000 -0.333333  0.400000      2.000000
  0.166667 -0.333333  0.400000      2.000000
  0.333333 -0.333333  0.400000      2.000000
  0.500000 -0.333333  0.400000      2.000000
 -0.333333 -0.333333  0.400000      2.000000
 -0.166667 -0.333333  0.400000      2.000000
  0.000000 -0.166667  0.400000      2.000000
  0.166667 -0.166667  0.400000      2.000000
  0.333333 -0.166667  0.400000      2.000000
  0.500000 -0.166667  0.400000      2.000000
 -0.333333 -0.166667  0.400000      2.000000
 -0.166667 -0.166667  0.400000      2.000000

 Following cartesian coordinates:
            Coordinates               Weight
  0.000000  0.000000  0.000000      1.000000
  0.026205 -0.000001  0.000002      2.000000
  0.052410 -0.000003  0.000004      2.000000
  0.078615 -0.000004  0.000006      1.000000
  0.000001  0.025156  0.000001      2.000000
[...]
    0.845367    6.630665    6.705627    6.209257   -0.002653    0.001441    0.001221
    0.864580    6.639627    6.715413    6.216799   -0.002677    0.001482    0.001241
    0.883793    6.648859    6.725505    6.224572   -0.002703    0.001525    0.001262
    0.903006    6.658368    6.735908    6.232584   -0.002730    0.001571    0.001284
    0.922219    6.668159    6.746632    6.240838   -0.002758    0.001619    0.001307
    0.941432    6.678239    6.757684    6.249343   -0.002788    0.001669    0.001332
    0.960645    6.688615    6.769074    6.258104   -0.002818    0.001722    0.001357
    0.979857    6.699293    6.780811    6.267129   -0.002851    0.001778    0.001384
    0.999070    6.710283    6.792905    6.276425   -0.002885    0.001836    0.001413
    1.018283    6.721592    6.805367    6.286001   -0.002921    0.001898    0.001442
    1.037496    6.733229    6.818207    6.295865   -0.002958    0.001963    0.001474
    1.056709    6.745202    6.831439    6.306027   -0.002997    0.002031    0.001507
    1.075922    6.757522    6.845075    6.316496   -0.003039    0.002104    0.001542
    1.095135    6.770200    6.859129    6.327284   -0.003082    0.002180    0.001579
    1.114348    6.783245    6.873615    6.338401   -0.003128    0.002261    0.001617
    1.133561    6.796670    6.888550    6.349861   -0.003176    0.002347    0.001658
[...]
   57.350482    0.882280    0.882165    0.882223    0.000003    0.000012    0.000004
   57.369695    0.882368    0.882254    0.882312    0.000003    0.000012    0.000004
   57.388908    0.882457    0.882342    0.882400    0.000003    0.000012    0.000004
   57.408121    0.882545    0.882431    0.882489    0.000003    0.000012    0.000004
   57.427334    0.882633    0.882519    0.882577    0.000003    0.000012    0.000004
   57.446547    0.882722    0.882608    0.882665    0.000003    0.000012    0.000004
   57.465760    0.882810    0.882696    0.882753    0.000003    0.000012    0.000004
   57.484972    0.882898    0.882784    0.882841    0.000003    0.000012    0.000004
   57.504185    0.882985    0.882872    0.882929    0.000003    0.000012    0.000004
   57.523398    0.883073    0.882960    0.883017    0.000003    0.000012    0.000004
   57.542611    0.883161    0.883048    0.883105    0.000003    0.000012    0.000004
   57.561824    0.883248    0.883135    0.883192    0.000003    0.000012    0.000004
   57.581037    0.883336    0.883223    0.883280    0.000003    0.000012    0.000004
   57.600250    0.883423    0.883310    0.883367    0.000003    0.000012    0.000004
   57.619463    0.883510    0.883398    0.883454    0.000003    0.000012    0.000004

  frequency dependent IMAGINARY DIELECTRIC FUNCTION (independent particle, no local field effects) current-current
     E(ev)      X         Y         Z        XY        YZ        ZX
    0.000000   56.174419   56.785661   52.026226   -0.053833    0.053391    0.033128
    0.019213   56.174419   56.785661   52.026226   -0.053833    0.053391    0.033128
    0.038426   28.089848   28.395660   26.015294   -0.026928    0.026714    0.016574
    0.057639   18.729498   18.933585   17.345954   -0.017965    0.017830    0.011060
    0.076852   14.050205   14.203494   13.012013   -0.013487    0.013394    0.008307
    0.096064   11.243335   11.366197   10.412232   -0.010804    0.010738    0.006657
    0.115277    9.372680    9.475300    8.679534   -0.009017    0.008972    0.005560
    0.134490    8.037005    8.125204    7.442312   -0.007744    0.007713    0.004778
    0.153703    7.035696    7.113112    6.514764   -0.006790    0.006773    0.004193
    0.172916    6.257298    6.326357    5.793667   -0.006051    0.006044    0.003740
    0.192129    5.634940    5.697341    5.217088   -0.005461    0.005464    0.003379
    0.211342    5.126068    5.183046    4.745614   -0.004980    0.004992    0.003085
    0.230555    4.702312    4.754794    4.352970   -0.004580    0.004601    0.002841
    0.249768    4.344031    4.392731    4.020967   -0.004243    0.004272    0.002636
    0.268980    4.037199    4.082677    3.736611   -0.003956    0.003993    0.002461
    0.288193    3.771526    3.814232    3.490375   -0.003708    0.003752    0.002311
    0.307406    3.539298    3.579597    3.275114   -0.003492    0.003544    0.002180
    0.326619    3.334614    3.372807    3.085362   -0.003303    0.003362    0.002066
    0.345832    3.152887    3.189226    2.916870   -0.003136    0.003202    0.001965
    0.365045    2.990493    3.025190    2.766283   -0.002987    0.003060    0.001876
    0.384258    2.844535    2.877770    2.630917   -0.002855    0.002935    0.001797
    0.403471    2.712667    2.744596    2.508600   -0.002736    0.002823    0.001726
    0.422684    2.592970    2.623728    2.397554   -0.002629    0.002723    0.001662
    0.441897    2.483859    2.513564    2.296311   -0.002532    0.002633    0.001605
    0.461109    2.384013    2.412768    2.203648   -0.002444    0.002553    0.001554
    0.480322    2.292323    2.320219    2.118537   -0.002365    0.002480    0.001507
    0.499535    2.207850    2.234968    2.040109   -0.002292    0.002415    0.001465
    0.518748    2.129795    2.156209    1.967623   -0.002226    0.002356    0.001427
    0.537961    2.057473    2.083247    1.900446   -0.002165    0.002304    0.001393
    0.557174    1.990294    2.015488    1.838029   -0.002110    0.002256    0.001362
    0.576387    1.927745    1.952414    1.779900   -0.002060    0.002214    0.001333
    0.595600    1.869382    1.893575    1.725647   -0.002013    0.002175    0.001308
    0.614813    1.814816    1.838578    1.674907   -0.001971    0.002142    0.001285
    0.634025    1.763703    1.787076    1.627365   -0.001932    0.002112    0.001265
    0.653238    1.715742    1.738766    1.582740   -0.001897    0.002085    0.001246
    0.672451    1.670667    1.693378    1.540786   -0.001865    0.002062    0.001230
    0.691664    1.628240    1.650671    1.501283   -0.001835    0.002043    0.001215
    0.710877    1.588250    1.610434    1.464034   -0.001809    0.002026    0.001203
    0.730090    1.550508    1.572475    1.428866   -0.001785    0.002012    0.001192
    0.749303    1.514844    1.536623    1.395621   -0.001764    0.002002    0.001183
    0.768516    1.481106    1.502725    1.364158   -0.001745    0.001994    0.001175
    0.787729    1.449158    1.470644    1.334351   -0.001728    0.001989    0.001170
    0.806941    1.418874    1.440253    1.306084   -0.001713    0.001986    0.001165
    0.826154    1.390145    1.411441    1.279254   -0.001701    0.001986    0.001162
    0.845367    1.362867    1.384105    1.253767   -0.001690    0.001989    0.001161
    0.864580    1.336948    1.358153    1.229538   -0.001682    0.001994    0.001161
    0.883793    1.312305    1.333500    1.206488   -0.001675    0.002002    0.001163
    0.903006    1.288861    1.310069    1.184548   -0.001671    0.002013    0.001166
    0.922219    1.266546    1.287792    1.163652   -0.001668    0.002027    0.001170
    0.941432    1.245296    1.266604    1.143742   -0.001668    0.002043    0.001177
    0.960645    1.225053    1.246448    1.124764   -0.001669    0.002063    0.001184
    0.979857    1.205765    1.227270    1.106669   -0.001673    0.002085    0.001194
    0.999070    1.187381    1.209024    1.089413   -0.001679    0.002111    0.001205
    1.018283    1.169858    1.191663    1.072954   -0.001686    0.002140    0.001218
    1.037496    1.153155    1.175150    1.057256   -0.001696    0.002173    0.001233
    1.056709    1.137234    1.159449    1.042284   -0.001709    0.002210    0.001249
    1.075922    1.122062    1.144526    1.028008   -0.001724    0.002251    0.001268
    1.095135    1.107608    1.130352    1.014401   -0.001741    0.002296    0.001289
    1.114348    1.093844    1.116902    1.001437   -0.001761    0.002346    0.001313
    1.133561    1.080745    1.104153    0.989095   -0.001784    0.002401    0.001339
[...]
   57.350482    0.000051    0.000051    0.000051   -0.000000    0.000000   -0.000000
   57.369695    0.000051    0.000051    0.000051   -0.000000    0.000000   -0.000000
   57.388908    0.000051    0.000051    0.000051   -0.000000    0.000000   -0.000000
   57.408121    0.000051    0.000051    0.000051   -0.000000    0.000000   -0.000000
   57.427334    0.000050    0.000051    0.000050   -0.000000    0.000000   -0.000000
   57.446547    0.000050    0.000051    0.000050   -0.000000    0.000000   -0.000000
   57.465760    0.000050    0.000051    0.000050   -0.000000    0.000000   -0.000000
   57.484972    0.000050    0.000050    0.000050   -0.000000    0.000000   -0.000000
   57.504185    0.000050    0.000050    0.000050   -0.000000    0.000000   -0.000000
   57.523398    0.000050    0.000050    0.000050   -0.000000    0.000000   -0.000000
   57.542611    0.000050    0.000050    0.000050   -0.000000    0.000000   -0.000000
   57.561824    0.000050    0.000050    0.000050   -0.000000    0.000000   -0.000000
   57.581037    0.000050    0.000050    0.000050   -0.000000    0.000000   -0.000000
   57.600250    0.000049    0.000050    0.000049   -0.000000    0.000000   -0.000000
   57.619463    0.000049    0.000050    0.000049   -0.000000    0.000000   -0.000000

  frequency dependent      REAL DIELECTRIC FUNCTION (independent particle, no local field effects) current-current
     E(ev)        X           Y           Z          XY          YZ          ZX
    0.000000    6.387111    6.445157    5.990221   -0.005131    0.005063    0.003148
    0.019213    6.387111    6.445157    5.990221   -0.005131    0.005063    0.003148
    0.038426    6.387362    6.445426    5.990428   -0.005132    0.005065    0.003148
    0.057639    6.387780    6.445875    5.990774   -0.005134    0.005068    0.003150
    0.076852    6.388367    6.446503    5.991259   -0.005136    0.005072    0.003152
    0.096064    6.389121    6.447311    5.991883   -0.005139    0.005077    0.003155
    0.115277    6.390043    6.448300    5.992645   -0.005143    0.005084    0.003158
    0.134490    6.391134    6.449469    5.993547   -0.005148    0.005091    0.003162
    0.153703    6.392394    6.450819    5.994589   -0.005154    0.005100    0.003167
    0.172916    6.393824    6.452352    5.995771   -0.005160    0.005110    0.003172
    0.192129    6.395423    6.454067    5.997093   -0.005167    0.005121    0.003178
    0.211342    6.397194    6.455965    5.998556   -0.005175    0.005134    0.003185
    0.230555    6.399136    6.458047    6.000162   -0.005183    0.005147    0.003192
    0.249768    6.401250    6.460315    6.001909   -0.005192    0.005162    0.003200
    0.268980    6.403537    6.462768    6.003800   -0.005202    0.005179    0.003209
    0.288193    6.405998    6.465409    6.005835   -0.005213    0.005196    0.003218
    0.307406    6.408635    6.468238    6.008014   -0.005225    0.005215    0.003228
    0.326619    6.411447    6.471257    6.010339   -0.005237    0.005236    0.003239
    0.345832    6.414437    6.474467    6.012811   -0.005251    0.005257    0.003250
    0.365045    6.417606    6.477869    6.015430   -0.005265    0.005280    0.003263
    0.384258    6.420954    6.481466    6.018198   -0.005280    0.005305    0.003276
    0.403471    6.424484    6.485259    6.021116   -0.005296    0.005331    0.003289
    0.422684    6.428197    6.489249    6.024185   -0.005313    0.005358    0.003304
    0.441897    6.432094    6.493439    6.027407   -0.005331    0.005388    0.003319
    0.461109    6.436178    6.497831    6.030782   -0.005350    0.005418    0.003336
    0.480322    6.440450    6.502426    6.034313   -0.005370    0.005451    0.003353
    0.499535    6.444911    6.507228    6.038002   -0.005391    0.005485    0.003371
    0.518748    6.449565    6.512238    6.041849   -0.005413    0.005520    0.003390
    0.537961    6.454413    6.517459    6.045856   -0.005435    0.005558    0.003409
    0.557174    6.459457    6.522894    6.050026   -0.005460    0.005597    0.003430
    0.576387    6.464700    6.528546    6.054361   -0.005485    0.005639    0.003452
    0.595600    6.470145    6.534417    6.058862   -0.005511    0.005682    0.003475
    0.614813    6.475793    6.540511    6.063531   -0.005539    0.005727    0.003499
    0.634025    6.481647    6.546831    6.068372   -0.005568    0.005775    0.003524
    0.653238    6.487712    6.553381    6.073386   -0.005598    0.005824    0.003550
    0.672451    6.493988    6.560164    6.078577   -0.005630    0.005876    0.003577
    0.691664    6.500481    6.567184    6.083946   -0.005663    0.005931    0.003606
    0.710877    6.507193    6.574445    6.089497   -0.005697    0.005987    0.003636
    0.730090    6.514127    6.581951    6.095233   -0.005733    0.006047    0.003667
    0.749303    6.521288    6.589708    6.101156   -0.005771    0.006109    0.003700
    0.768516    6.528678    6.597720    6.107271   -0.005810    0.006174    0.003734
    0.787729    6.536304    6.605991    6.113581   -0.005851    0.006242    0.003770
    0.806941    6.544168    6.614528    6.120090   -0.005893    0.006313    0.003807
    0.826154    6.552275    6.623335    6.126801   -0.005938    0.006387    0.003847
    0.845367    6.560630    6.632419    6.133718   -0.005985    0.006464    0.003887
    0.864580    6.569238    6.641786    6.140847   -0.006033    0.006546    0.003930
    0.883793    6.578104    6.651443    6.148192   -0.006084    0.006630    0.003975
    0.903006    6.587234    6.661396    6.155758   -0.006137    0.006719    0.004021
    0.922219    6.596634    6.671653    6.163550   -0.006192    0.006812    0.004070
    0.941432    6.606310    6.682221    6.171573   -0.006250    0.006910    0.004121
    0.960645    6.616268    6.693109    6.179834   -0.006311    0.007012    0.004175
    0.979857    6.626516    6.704326    6.188339   -0.006374    0.007119    0.004231
    0.999070    6.637061    6.715881    6.197095   -0.006441    0.007231    0.004290
    1.018283    6.647910    6.727784    6.206108   -0.006510    0.007349    0.004351
    1.037496    6.659072    6.740046    6.215387   -0.006583    0.007472    0.004416
    1.056709    6.670555    6.752677    6.224939   -0.006659    0.007602    0.004484
    1.075922    6.682369    6.765690    6.234774   -0.006739    0.007739    0.004555
    1.095135    6.694524    6.779097    6.244900   -0.006823    0.007883    0.004630
    1.114348    6.707029    6.792912    6.255327   -0.006911    0.008034    0.004709
    1.133561    6.719897    6.807150    6.266067   -0.007004    0.008193    0.004792
[...]
   57.350482    0.882515    0.882402    0.882580    0.000018    0.000000   -0.000003
   57.369695    0.882604    0.882491    0.882669    0.000018    0.000000   -0.000003
   57.388908    0.882692    0.882579    0.882757    0.000018    0.000000   -0.000003
   57.408121    0.882780    0.882667    0.882845    0.000018    0.000000   -0.000003
   57.427334    0.882869    0.882756    0.882933    0.000018    0.000000   -0.000003
   57.446547    0.882957    0.882844    0.883021    0.000018    0.000000   -0.000003
   57.465760    0.883044    0.882932    0.883109    0.000018    0.000000   -0.000003
   57.484972    0.883132    0.883020    0.883197    0.000018    0.000000   -0.000003
   57.504185    0.883220    0.883108    0.883284    0.000018    0.000000   -0.000003
   57.523398    0.883308    0.883195    0.883372    0.000018    0.000000   -0.000003
   57.542611    0.883395    0.883283    0.883459    0.000018    0.000000   -0.000003
   57.561824    0.883482    0.883371    0.883547    0.000018    0.000000   -0.000003
   57.581037    0.883570    0.883458    0.883634    0.000018    0.000000   -0.000003
   57.600250    0.883657    0.883545    0.883721    0.000018    0.000000   -0.000003
   57.619463    0.883744    0.883633    0.883808    0.000018    0.000000   -0.000003

 The outermost node in the dielectric function lies at epsilon=  19.2

 total charge

# of ion       s       p       d       tot
    1        0.391   0.290   9.605  10.286
    2        0.391   0.290   9.605  10.286
    3        0.333   0.343   9.367  10.043
    4        0.333   0.343   9.367  10.043
    5        0.333   0.343   9.367  10.043
    6        0.333   0.343   9.367  10.043
    7        1.081   1.117   0.160   2.359
    8        1.081   1.118   0.160   2.359
    9        1.322   2.388   0.000   3.711
   10        1.322   2.389   0.000   3.711
   11        1.322   2.389   0.000   3.711
   12        1.319   2.398   0.000   3.717
   13        1.322   2.388   0.000   3.711
   14        1.322   2.389   0.000   3.711
   15        1.322   2.389   0.000   3.711
   16        1.319   2.397   0.000   3.717
tot         14.849  23.314  56.998  95.161

 BZINTS: Fermi energy:    3.102789;  124.000000 electrons
         Band energy:-0.329858E+03;  BLOECHL correction:   -0.000000